C  N  Cu O  H                           
   1.00000000000000     
     8.4847244584024217    0.0002776486207846   -0.0000016232455225
     0.0002813194583910    8.3781597643537413    0.0000013661483145
    -0.0000100165644405    0.0000055948446242   17.8922230678837231
   C    N    Cu   O    H 
    20     4     1     2     1
Direct
  0.4937796215065552  0.0934656242580703  0.1509366623533574
  0.3465939297652864  0.1750321317168628  0.1499717494681105
  0.6422190956324675  0.1703656553067746  0.1471465147382604
  0.7877601494891519  0.9228823265987253  0.1493522928364082
  0.7904857835348664  0.0871431318321679  0.1481404720088464
  0.9125562140798967  0.2087008491300162  0.1488294022738427
  0.8290918728387251  0.3573699120298238  0.1490413016393496
  0.1978643294048984  0.0913781273678204  0.1467766451049152
  0.0768851455095509  0.2112822749262213  0.1494621059811899
  0.1607424228777564  0.3611038226832162  0.1559273619281584
  0.0764747852200425  0.5072376499235567  0.1610611925131629
  0.1487212432371443  0.6573287085179859  0.1657656229992062
  0.3427747571256979  0.8481837721615854  0.1634049883037861
  0.1960454617873484  0.9264239831903313  0.1505749861017266
  0.0723274533659579  0.8052013945744885  0.1522272560618285
  0.6388685365998311  0.8376906058834940  0.1546693868816667
  0.8251834678461328  0.6532900841950795  0.1528031951144137
  0.9084585478623972  0.8030563316705167  0.1490090442910959
  0.4921446175803564  0.9208439307326187  0.1581021252525898
  0.9061140695024482  0.5056337413953055  0.1541650881410279
  0.6687487667678214  0.3314181237508339  0.1438660604081636
  0.3220799463187126  0.3371746414244267  0.1545818757930516
  0.3061543616878413  0.6908102920939881  0.1830981993428145
  0.6643873029377410  0.6763019671410277  0.1549667340587228
  0.5201893026037679  0.4685554809595260  0.1882610946959585
  0.3827978117470679  0.6114477622696894  0.2349575377918142
  0.6185634280191080  0.4259477486357554  0.2830757983014086
  0.5663213817643020  0.5016095837953649  0.3164296585110789
 
  0.00000000E+00  0.00000000E+00  0.00000000E+00
  0.00000000E+00  0.00000000E+00  0.00000000E+00
  0.00000000E+00  0.00000000E+00  0.00000000E+00
  0.00000000E+00  0.00000000E+00  0.00000000E+00
  0.00000000E+00  0.00000000E+00  0.00000000E+00
  0.00000000E+00  0.00000000E+00  0.00000000E+00
  0.00000000E+00  0.00000000E+00  0.00000000E+00
  0.00000000E+00  0.00000000E+00  0.00000000E+00
  0.00000000E+00  0.00000000E+00  0.00000000E+00
  0.00000000E+00  0.00000000E+00  0.00000000E+00
  0.00000000E+00  0.00000000E+00  0.00000000E+00
  0.00000000E+00  0.00000000E+00  0.00000000E+00
  0.00000000E+00  0.00000000E+00  0.00000000E+00
  0.00000000E+00  0.00000000E+00  0.00000000E+00
  0.00000000E+00  0.00000000E+00  0.00000000E+00
  0.00000000E+00  0.00000000E+00  0.00000000E+00
  0.00000000E+00  0.00000000E+00  0.00000000E+00
  0.00000000E+00  0.00000000E+00  0.00000000E+00
  0.00000000E+00  0.00000000E+00  0.00000000E+00
  0.00000000E+00  0.00000000E+00  0.00000000E+00
  0.00000000E+00  0.00000000E+00  0.00000000E+00
  0.00000000E+00  0.00000000E+00  0.00000000E+00
  0.00000000E+00  0.00000000E+00  0.00000000E+00
  0.00000000E+00  0.00000000E+00  0.00000000E+00
  0.00000000E+00  0.00000000E+00  0.00000000E+00
  0.00000000E+00  0.00000000E+00  0.00000000E+00
  0.00000000E+00  0.00000000E+00  0.00000000E+00
  0.00000000E+00  0.00000000E+00  0.00000000E+00
