C  N  H  Cu O                           
   1.00000000000000     
    11.1535200114466004  -19.3193486123013223    0.0000000000000000
    11.1535200114466004   19.3193486123013223    0.0000000000000000
     0.0000000000000000    0.0000000000000000   16.0000000000000000
   C    N    H    Cu   O 
   206     4    28     1     3
Direct
  0.0000298238582569  0.9999963802781686  0.1127145127910338
  0.0370806771485006  0.0740801871203480  0.1126603214185152
  0.0000346396359829  0.1111130583409233  0.1125926302955299
  0.0370810809759049  0.1851934215792101  0.1126027069287012
  0.0000389499895132  0.2222280289147347  0.1124951914229990
  0.0370815434549758  0.2963030559583774  0.1125157317049445
  0.0000392957804433  0.3333370628549169  0.1123810094484902
  0.0370784293209158  0.4074110814725490  0.1124072476083296
  0.0000358923051947  0.4444451917547361  0.1123280014680725
  0.0370699064957915  0.5185184167596744  0.1123883497371772
  0.0000287601906663  0.5555533964572935  0.1124027852336996
  0.0370658927793513  0.6296269933005550  0.1124902610607739
  0.0000233607235088  0.6666616281266957  0.1125772063682999
  0.0370651607630498  0.7407364103389777  0.1126350090871176
  0.0000238475047469  0.7777714654374637  0.1127543495182103
  0.0370699062833387  0.8518506083983104  0.1127327953725843
  0.0000331023251384  0.8888883883573953  0.1128020666345301
  0.0370778927624924  0.9629679080300387  0.1127262203363787
  0.1111575674954829  0.0000131170203101  0.1127635069819365
  0.1482045819821093  0.0740913884857622  0.1128767900546869
  0.1111642324779498  0.1111217234828913  0.1127422665101428
  0.1482127997013418  0.1852023475964135  0.1128358678660113
  0.1111651015849596  0.2222326379059390  0.1127970239872204
  0.1482069156909640  0.2963118917708706  0.1130510159448362
  0.1111597479727116  0.3333404366156579  0.1128264141474645
  0.1482043771305473  0.4074159713621147  0.1129621271161882
  0.1111573277718152  0.4444455705520750  0.1126763002589572
  0.1481947945438178  0.5185199944849499  0.1127748082625881
  0.1111488405999742  0.5555524615670570  0.1125801751238589
  0.1481858387140020  0.6296270073471399  0.1126961155040047
  0.1111436894584373  0.6666647367560523  0.1126072224404562
  0.1481849916666971  0.7407416061975588  0.1127001739343951
  0.1111435324942479  0.7777782018470768  0.1126557441502289
  0.1481857460896651  0.8518553892205858  0.1127182791760393
  0.1111491643032538  0.8888953691409629  0.1127067902377070
  0.1481916742786712  0.9629732496854347  0.1127807182916784
  0.2222677539850149  0.0000177817990097  0.1129223642521021
  0.2593062325672157  0.0740950585500007  0.1131563906130486
  0.2222754627949242  0.1111364405493340  0.1131602967437571
  0.2593155487973275  0.1852065142646676  0.1134636934249448
  0.2222851658908022  0.2222354076175012  0.1132722452963646
  0.2593242834677346  0.2963096284858084  0.1136830072329988
  0.2222855905816203  0.3333486377013665  0.1135274528493620
  0.2593261194448220  0.4074224040957904  0.1138219723353804
  0.2222798470283252  0.4444451837064292  0.1134583619521754
  0.2593186245203762  0.5185192423998309  0.1135212483220908
  0.2222753062986808  0.5555537451490992  0.1131128448105019
  0.2593226757478508  0.6296308953599471  0.1130521628806825
  0.2222705568099721  0.6666643338535986  0.1129041447954699
  0.2593098123179035  0.7407435342880377  0.1129977676742997
  0.2222630847134716  0.7777799775467742  0.1128678195052774
  0.2593002074728187  0.8518564356857234  0.1128943712004453
  0.2222620933141378  0.8888963613422616  0.1128219296399490
  0.2593001534349066  0.9629747824450002  0.1129144794663508
  0.3333755141143132  0.0000133032046396  0.1130189485616135
  0.3704109568156568  0.0740915849540585  0.1132140658590602
  0.3333797823430929  0.1111362735735725  0.1133731522354579
  0.3704168654465791  0.1852104745784834  0.1137775323709542
  0.3333851801366888  0.2222467841927967  0.1139163735967849
  0.3704271930338087  0.2963124232349194  0.1143701280787895
  0.3333984344483374  0.3333496576708815  0.1143071830787139
  0.3704297988072762  0.4074195325956698  0.1146578274735128
  0.3333937095202874  0.4444519998509041  0.1143752869539257
  0.3704332323083089  0.5185214670385321  0.1144504110991983
  0.3333971543344441  0.5555591730621214  0.1139273129704284
  0.3704312172031005  0.6296341767055449  0.1137754695022129
  0.3333943189097912  0.6666662167183021  0.1133296055255863
  0.3704161123637899  0.7407290244267715  0.1133381024758463
  0.3333837642888167  0.7777692578120512  0.1131491074104302
  0.3704109662672851  0.8518472167656987  0.1130893328346800
  0.3333759052067166  0.8888895710421151  0.1129804210181767
  0.3704089202160823  0.9629686855447431  0.1129914615407133
  0.4444824686979963  0.0000056370785692  0.1130058312773504
  0.4815157585663829  0.0740853116502852  0.1130784639323949
  0.4444856947518768  0.1111310910050350  0.1132706856264344
  0.4815197443180412  0.1852090926195619  0.1135560636610257
  0.4444876065267887  0.2222496517324527  0.1139201714028646
  0.4815183057188610  0.2963139436750036  0.1143265299163192
  0.4444923213482695  0.3333496122255051  0.1146453476024972
  0.4815212077575675  0.4074132360805527  0.1149584137552966
  0.4444974492528517  0.4444534984943356  0.1150119729159669
  0.4815290776975298  0.5185191519872158  0.1150869289963608
  0.4445006650983172  0.5555576473196913  0.1148134503834815
  0.4815264072604902  0.6296234952245170  0.1146357569279716
  0.4444957679716705  0.6666578999142430  0.1141532679264483
  0.4815194876736483  0.7407236391208110  0.1139116267699942
  0.4444850597488002  0.7777595798757269  0.1135264816097553
  0.4815134312578291  0.8518348203035012  0.1133129372826789
  0.4444827888733628  0.8888809429698032  0.1131178739214012
  0.4815139295575159  0.9629593400243203  0.1130143293175816
  0.5555879213851963  0.9999966310554252  0.1129819078308547
  0.5926195825406138  0.0740755884879702  0.1129209222354891
  0.5555888810807207  0.1111222638032096  0.1130212862818784
  0.5926180039865686  0.1851984425060412  0.1131030571528025
  0.5555905176309753  0.2222423961420198  0.1134309381002748
  0.5926188069698093  0.2963108564777003  0.1136025473932890
  0.5555857752061486  0.3333426760486319  0.1141761768394300
  0.5926095654826417  0.4074100027086320  0.1144308282358362
  0.5555827730538877  0.4444501465617078  0.1148960446268340
  0.5926139524245935  0.5185127063323323  0.1149641781040013
  0.5555909295147518  0.5555533126504094  0.1150981063699272
  0.5926127721375442  0.6296163653537259  0.1148874280339535
  0.5555899258564355  0.6666536985461485  0.1146966397990738
  0.5926191673131023  0.7407169830216827  0.1142886448353042
  0.5555883627408843  0.7777544846094312  0.1139585479886972
  0.5926183493076340  0.8518274944934249  0.1135609452604720
  0.5555865748318662  0.8888721313230699  0.1133033177065174
  0.5926195294425821  0.9629510783265376  0.1130694916493061
  0.6666944115000925  0.9999893149699650  0.1129765196253744
  0.7037288969876964  0.0740672967939724  0.1128108548896354
  0.6666924647988914  0.1111088827036851  0.1128319783924981
  0.7037241032650460  0.1851873711840328  0.1127709090831460
  0.6666871074649888  0.2222270413282652  0.1128946092931231
  0.7037134844577345  0.2962973789283204  0.1128350169942150
  0.6666784594989998  0.3333326791749592  0.1131880328558124
  0.7037156403877640  0.4074016908711142  0.1133625428253337
  0.6666789001179566  0.4444452069584943  0.1139968962018270
  0.7037159173049796  0.5185200616035145  0.1141098588947663
  0.6666751213659560  0.5555417253334392  0.1145889468367293
  0.7037090877712461  0.6296144662986790  0.1143964432588691
  0.6666816099356125  0.6666580495228213  0.1145336405563839
  0.7037189112570050  0.7407242023805621  0.1140759448412355
  0.6666854827409378  0.7777552329152491  0.1140398237853523
  0.7037230926203781  0.8518259443179255  0.1135912306784636
  0.6666926217662628  0.8888685490177137  0.1134170734310335
  0.7037276787939776  0.9629456216171796  0.1130764780339634
  0.7778018724531892  0.9999858683040573  0.1128911503961472
  0.8148409235704867  0.0740639762046077  0.1126733251961274
  0.7778052094987647  0.1111041491286256  0.1126704604020660
  0.8148440762898920  0.1851810634270743  0.1125527033857506
  0.7778023648888203  0.2222187060212656  0.1126193947012780
  0.8148414812354821  0.2962948886946776  0.1125537868475771
  0.7777921304809962  0.3333308066781663  0.1126733386209292
  0.8148371890575850  0.4074116037246018  0.1127201229101705
  0.7777933418274559  0.4444444304765653  0.1130601940319180
  0.8148300945359909  0.5185203629630469  0.1131119903656411
  0.7777854471737614  0.5555493330681037  0.1135822674764621
  0.8148267335445984  0.6296198292563130  0.1135155280503663
  0.7777826586029823  0.6666515375386842  0.1138524077010599
  0.8148175997409079  0.7407324697594786  0.1135277326861131
  0.7777829597735522  0.7777639709953499  0.1135836211576051
  0.8148219650826715  0.8518296490378802  0.1132733178704603
  0.7777938903594265  0.8888674383859939  0.1132818563409498
  0.8148328849356210  0.9629421867476630  0.1129557818881807
  0.8889100692730477  0.9999904226701896  0.1127619615122547
  0.9259535469463044  0.0740689294478861  0.1125947713908424
  0.8889182313751965  0.1111081839873447  0.1125463159398536
  0.9259604327123055  0.1851849216326306  0.1124505602179284
  0.8889210036868856  0.2222221215901022  0.1124316732099100
  0.9259611884545466  0.2962979485644832  0.1123615298893577
  0.8889210810548754  0.3333347723516895  0.1123994924414209
  0.9259581659456518  0.4074101537951992  0.1123521428396505
  0.8889174901439062  0.4444463454496715  0.1124918688185175
  0.9259502970915160  0.5185187719395892  0.1124888468055520
  0.8889058163262681  0.5555508312620980  0.1127394521856565
  0.9259459536883046  0.6296243970209403  0.1127458408023615
  0.8889013382953094  0.6666546558225470  0.1130546988145412
  0.9259456139846176  0.7407302289209577  0.1129939207155984
  0.8889001165336097  0.7777639192704626  0.1131839676242396
  0.9259456212526312  0.8518455974754865  0.1130030340853709
  0.8888944498812347  0.8888734711574225  0.1130212029723279
  0.9259484890159841  0.9629565689125722  0.1128182361803231
  0.5095270631063370  0.3662776719305294  0.4221400986477675
  0.4682281001422184  0.2916768257822909  0.4146222404329409
  0.4002133660625456  0.2746610968422082  0.4199984260976345
  0.3983711929738911  0.3384357845438903  0.4315062494705098
  0.6235842789861195  0.4758788523584507  0.4179644843884666
  0.6986347587442103  0.5158830653900326  0.4231773095804935
  0.6535366175317522  0.5874979961216629  0.4176355563554960
  0.7170733876193117  0.5845971576067459  0.4229719908447090
  0.3541838074690765  0.5088473379291250  0.4347785785897388
  0.3233684864040723  0.3940769040323742  0.4350559097988430
  0.2824510803716871  0.4684666475980609  0.4104999471642140
  0.2638777828123304  0.3992945401561050  0.4106648170305182
  0.5851952850577746  0.6482899723096204  0.4213910542180668
  0.5806090230686285  0.7105860596143768  0.4135787888155607
  0.4729375784475629  0.6163488338960741  0.4308298544259088
  0.5119099999162400  0.6910178251740722  0.4190090542709103
  0.3995241114537219  0.5806454629166372  0.4334304401381818
  0.3342332183006224  0.3373243735672588  0.4339840429008202
  0.5826091206254148  0.4033605389915135  0.4194382176210567
  0.6194905778234215  0.3630918167895490  0.4201511960045870
  0.6617505931726413  0.3670402718102397  0.3527978242423010
  0.6138968654146869  0.3218595388810025  0.4894618528803873
  0.6975863243654343  0.3304927933102599  0.3545873130555834
  0.6502786767109551  0.2858846601251199  0.4916711899044713
  0.6921698874922229  0.2900478042930036  0.4242000941260830
  0.6481478332220535  0.6476111061465145  0.4187587738613421
  0.3647118353094739  0.6231504288037299  0.4285862484790812
  0.7140285984358323  0.7153844476242384  0.4193460183830751
  0.2694914494755122  0.2681501002276811  0.4291397701171999
  0.3279140298058784  0.6221755744745213  0.3569237301927786
  0.7605793914919727  0.7351600054752364  0.3520263250961616
  0.2276135354693155  0.2481037517227029  0.3574379364771634
  0.3663804894907403  0.6627042246675680  0.4977803437015328
  0.7313883640418597  0.7598069510942322  0.4886204742882780
  0.2485585616838517  0.2233309143652573  0.4982291679792037
  0.2924525347039665  0.6591196972226187  0.3549264553519628
  0.8230794546275539  0.7980442759884991  0.3537973278924023
  0.1653583728538430  0.1849547163109903  0.3552923159717065
  0.3312720918609521  0.6999540422100168  0.4956498475238039
  0.7941993781123033  0.8223243640912459  0.4908417798892448
  0.1865493640302321  0.1600111957683678  0.4959449185462576
  0.2938360748835804  0.6978928536303238  0.4244238902781937
  0.8401784095646546  0.8416457319106210  0.4233874519289009
  0.1445609223616179  0.1408646706336759  0.4246796864996844
  0.4663991394935354  0.3938299281563691  0.4312962401340670
  0.3744674327215349  0.4610354812841020  0.4544227831063227
  0.5981298912991209  0.5208638220484597  0.4145738345629277
  0.5194760218374515  0.5916228312948933  0.4307728292700524
  0.4889443960112987  0.2574411521462852  0.4046663996827136
  0.3547719074686357  0.2237182194499651  0.4147473814541720
  0.7323070900341769  0.4940107682018489  0.4282925822718570
  0.7686096281512468  0.6292860983960358  0.4278866740498805
  0.2507211907011745  0.4902101075295374  0.3914356873743429
  0.2146397928119069  0.3558528217791588  0.3917534883887826
  0.6243045419675508  0.7620403756515777  0.4034068514102532
  0.4888621413263898  0.7236061091546674  0.4136134959914120
  0.6659124374982133  0.3985939982815249  0.2987456058908712
  0.5816274216286986  0.3191276530577207  0.5421497865756502
  0.7296520778993276  0.3335528635843300  0.3015149834454791
  0.6462111661698106  0.2548703752814260  0.5463840174959600
  0.3272294789350284  0.5923360715870235  0.3026586626668709
  0.7471863968472570  0.7010839217536556  0.2980178636170851
  0.2440845863224284  0.2822283452889876  0.3032351241146298
  0.3951105784844137  0.6637076734964091  0.5533999408875400
  0.6956810463370434  0.7443732436578994  0.5412810188462431
  0.2811223661868252  0.2386767318198868  0.5538722287913607
  0.2638075392896453  0.6575600147960518  0.2989874623624592
  0.8583645612550059  0.8129699458511894  0.3007504961099960
  0.1332537715448413  0.1702871352916455  0.2992999085684667
  0.3328366372573284  0.7302761332508272  0.5499599885154610
  0.8074064342664763  0.8558004180578386  0.5455447032908188
  0.1708566804565041  0.1257984192288392  0.5501589953259467
  0.2658969237328854  0.7263944409177673  0.4231117044117611
  0.7205126174100640  0.2619492533187670  0.4259597024183654
  0.0958788297480469  0.0917808194205207  0.4232344010637688
  0.8891521510075501  0.8904446323750166  0.4251478543040984
  0.5041934128508692  0.4957574545883843  0.4408488389923714
  0.4253677989796711  0.4747263389563487  0.5083971478048581
  0.5184947572745179  0.4998531518629725  0.6474438005500674
  0.4688576473301755  0.4968558243055980  0.6861204868772474
 
  0.00000000E+00  0.00000000E+00  0.00000000E+00
  0.00000000E+00  0.00000000E+00  0.00000000E+00
  0.00000000E+00  0.00000000E+00  0.00000000E+00
  0.00000000E+00  0.00000000E+00  0.00000000E+00
  0.00000000E+00  0.00000000E+00  0.00000000E+00
  0.00000000E+00  0.00000000E+00  0.00000000E+00
  0.00000000E+00  0.00000000E+00  0.00000000E+00
  0.00000000E+00  0.00000000E+00  0.00000000E+00
  0.00000000E+00  0.00000000E+00  0.00000000E+00
  0.00000000E+00  0.00000000E+00  0.00000000E+00
  0.00000000E+00  0.00000000E+00  0.00000000E+00
  0.00000000E+00  0.00000000E+00  0.00000000E+00
  0.00000000E+00  0.00000000E+00  0.00000000E+00
  0.00000000E+00  0.00000000E+00  0.00000000E+00
  0.00000000E+00  0.00000000E+00  0.00000000E+00
  0.00000000E+00  0.00000000E+00  0.00000000E+00
  0.00000000E+00  0.00000000E+00  0.00000000E+00
  0.00000000E+00  0.00000000E+00  0.00000000E+00
  0.00000000E+00  0.00000000E+00  0.00000000E+00
  0.00000000E+00  0.00000000E+00  0.00000000E+00
  0.00000000E+00  0.00000000E+00  0.00000000E+00
  0.00000000E+00  0.00000000E+00  0.00000000E+00
  0.00000000E+00  0.00000000E+00  0.00000000E+00
  0.00000000E+00  0.00000000E+00  0.00000000E+00
  0.00000000E+00  0.00000000E+00  0.00000000E+00
  0.00000000E+00  0.00000000E+00  0.00000000E+00
  0.00000000E+00  0.00000000E+00  0.00000000E+00
  0.00000000E+00  0.00000000E+00  0.00000000E+00
  0.00000000E+00  0.00000000E+00  0.00000000E+00
  0.00000000E+00  0.00000000E+00  0.00000000E+00
  0.00000000E+00  0.00000000E+00  0.00000000E+00
  0.00000000E+00  0.00000000E+00  0.00000000E+00
  0.00000000E+00  0.00000000E+00  0.00000000E+00
  0.00000000E+00  0.00000000E+00  0.00000000E+00
  0.00000000E+00  0.00000000E+00  0.00000000E+00
  0.00000000E+00  0.00000000E+00  0.00000000E+00
  0.00000000E+00  0.00000000E+00  0.00000000E+00
  0.00000000E+00  0.00000000E+00  0.00000000E+00
  0.00000000E+00  0.00000000E+00  0.00000000E+00
  0.00000000E+00  0.00000000E+00  0.00000000E+00
  0.00000000E+00  0.00000000E+00  0.00000000E+00
  0.00000000E+00  0.00000000E+00  0.00000000E+00
  0.00000000E+00  0.00000000E+00  0.00000000E+00
  0.00000000E+00  0.00000000E+00  0.00000000E+00
  0.00000000E+00  0.00000000E+00  0.00000000E+00
  0.00000000E+00  0.00000000E+00  0.00000000E+00
  0.00000000E+00  0.00000000E+00  0.00000000E+00
  0.00000000E+00  0.00000000E+00  0.00000000E+00
  0.00000000E+00  0.00000000E+00  0.00000000E+00
  0.00000000E+00  0.00000000E+00  0.00000000E+00
  0.00000000E+00  0.00000000E+00  0.00000000E+00
  0.00000000E+00  0.00000000E+00  0.00000000E+00
  0.00000000E+00  0.00000000E+00  0.00000000E+00
  0.00000000E+00  0.00000000E+00  0.00000000E+00
  0.00000000E+00  0.00000000E+00  0.00000000E+00
  0.00000000E+00  0.00000000E+00  0.00000000E+00
  0.00000000E+00  0.00000000E+00  0.00000000E+00
  0.00000000E+00  0.00000000E+00  0.00000000E+00
  0.00000000E+00  0.00000000E+00  0.00000000E+00
  0.00000000E+00  0.00000000E+00  0.00000000E+00
  0.00000000E+00  0.00000000E+00  0.00000000E+00
  0.00000000E+00  0.00000000E+00  0.00000000E+00
  0.00000000E+00  0.00000000E+00  0.00000000E+00
  0.00000000E+00  0.00000000E+00  0.00000000E+00
  0.00000000E+00  0.00000000E+00  0.00000000E+00
  0.00000000E+00  0.00000000E+00  0.00000000E+00
  0.00000000E+00  0.00000000E+00  0.00000000E+00
  0.00000000E+00  0.00000000E+00  0.00000000E+00
  0.00000000E+00  0.00000000E+00  0.00000000E+00
  0.00000000E+00  0.00000000E+00  0.00000000E+00
  0.00000000E+00  0.00000000E+00  0.00000000E+00
  0.00000000E+00  0.00000000E+00  0.00000000E+00
  0.00000000E+00  0.00000000E+00  0.00000000E+00
  0.00000000E+00  0.00000000E+00  0.00000000E+00
  0.00000000E+00  0.00000000E+00  0.00000000E+00
  0.00000000E+00  0.00000000E+00  0.00000000E+00
  0.00000000E+00  0.00000000E+00  0.00000000E+00
  0.00000000E+00  0.00000000E+00  0.00000000E+00
  0.00000000E+00  0.00000000E+00  0.00000000E+00
  0.00000000E+00  0.00000000E+00  0.00000000E+00
  0.00000000E+00  0.00000000E+00  0.00000000E+00
  0.00000000E+00  0.00000000E+00  0.00000000E+00
  0.00000000E+00  0.00000000E+00  0.00000000E+00
  0.00000000E+00  0.00000000E+00  0.00000000E+00
  0.00000000E+00  0.00000000E+00  0.00000000E+00
  0.00000000E+00  0.00000000E+00  0.00000000E+00
  0.00000000E+00  0.00000000E+00  0.00000000E+00
  0.00000000E+00  0.00000000E+00  0.00000000E+00
  0.00000000E+00  0.00000000E+00  0.00000000E+00
  0.00000000E+00  0.00000000E+00  0.00000000E+00
  0.00000000E+00  0.00000000E+00  0.00000000E+00
  0.00000000E+00  0.00000000E+00  0.00000000E+00
  0.00000000E+00  0.00000000E+00  0.00000000E+00
  0.00000000E+00  0.00000000E+00  0.00000000E+00
  0.00000000E+00  0.00000000E+00  0.00000000E+00
  0.00000000E+00  0.00000000E+00  0.00000000E+00
  0.00000000E+00  0.00000000E+00  0.00000000E+00
  0.00000000E+00  0.00000000E+00  0.00000000E+00
  0.00000000E+00  0.00000000E+00  0.00000000E+00
  0.00000000E+00  0.00000000E+00  0.00000000E+00
  0.00000000E+00  0.00000000E+00  0.00000000E+00
  0.00000000E+00  0.00000000E+00  0.00000000E+00
  0.00000000E+00  0.00000000E+00  0.00000000E+00
  0.00000000E+00  0.00000000E+00  0.00000000E+00
  0.00000000E+00  0.00000000E+00  0.00000000E+00
  0.00000000E+00  0.00000000E+00  0.00000000E+00
  0.00000000E+00  0.00000000E+00  0.00000000E+00
  0.00000000E+00  0.00000000E+00  0.00000000E+00
  0.00000000E+00  0.00000000E+00  0.00000000E+00
  0.00000000E+00  0.00000000E+00  0.00000000E+00
  0.00000000E+00  0.00000000E+00  0.00000000E+00
  0.00000000E+00  0.00000000E+00  0.00000000E+00
  0.00000000E+00  0.00000000E+00  0.00000000E+00
  0.00000000E+00  0.00000000E+00  0.00000000E+00
  0.00000000E+00  0.00000000E+00  0.00000000E+00
  0.00000000E+00  0.00000000E+00  0.00000000E+00
  0.00000000E+00  0.00000000E+00  0.00000000E+00
  0.00000000E+00  0.00000000E+00  0.00000000E+00
  0.00000000E+00  0.00000000E+00  0.00000000E+00
  0.00000000E+00  0.00000000E+00  0.00000000E+00
  0.00000000E+00  0.00000000E+00  0.00000000E+00
  0.00000000E+00  0.00000000E+00  0.00000000E+00
  0.00000000E+00  0.00000000E+00  0.00000000E+00
  0.00000000E+00  0.00000000E+00  0.00000000E+00
  0.00000000E+00  0.00000000E+00  0.00000000E+00
  0.00000000E+00  0.00000000E+00  0.00000000E+00
  0.00000000E+00  0.00000000E+00  0.00000000E+00
  0.00000000E+00  0.00000000E+00  0.00000000E+00
  0.00000000E+00  0.00000000E+00  0.00000000E+00
  0.00000000E+00  0.00000000E+00  0.00000000E+00
  0.00000000E+00  0.00000000E+00  0.00000000E+00
  0.00000000E+00  0.00000000E+00  0.00000000E+00
  0.00000000E+00  0.00000000E+00  0.00000000E+00
  0.00000000E+00  0.00000000E+00  0.00000000E+00
  0.00000000E+00  0.00000000E+00  0.00000000E+00
  0.00000000E+00  0.00000000E+00  0.00000000E+00
  0.00000000E+00  0.00000000E+00  0.00000000E+00
  0.00000000E+00  0.00000000E+00  0.00000000E+00
  0.00000000E+00  0.00000000E+00  0.00000000E+00
  0.00000000E+00  0.00000000E+00  0.00000000E+00
  0.00000000E+00  0.00000000E+00  0.00000000E+00
  0.00000000E+00  0.00000000E+00  0.00000000E+00
  0.00000000E+00  0.00000000E+00  0.00000000E+00
  0.00000000E+00  0.00000000E+00  0.00000000E+00
  0.00000000E+00  0.00000000E+00  0.00000000E+00
  0.00000000E+00  0.00000000E+00  0.00000000E+00
  0.00000000E+00  0.00000000E+00  0.00000000E+00
  0.00000000E+00  0.00000000E+00  0.00000000E+00
  0.00000000E+00  0.00000000E+00  0.00000000E+00
  0.00000000E+00  0.00000000E+00  0.00000000E+00
  0.00000000E+00  0.00000000E+00  0.00000000E+00
  0.00000000E+00  0.00000000E+00  0.00000000E+00
  0.00000000E+00  0.00000000E+00  0.00000000E+00
  0.00000000E+00  0.00000000E+00  0.00000000E+00
  0.00000000E+00  0.00000000E+00  0.00000000E+00
  0.00000000E+00  0.00000000E+00  0.00000000E+00
  0.00000000E+00  0.00000000E+00  0.00000000E+00
  0.00000000E+00  0.00000000E+00  0.00000000E+00
  0.00000000E+00  0.00000000E+00  0.00000000E+00
  0.00000000E+00  0.00000000E+00  0.00000000E+00
  0.00000000E+00  0.00000000E+00  0.00000000E+00
  0.00000000E+00  0.00000000E+00  0.00000000E+00
  0.00000000E+00  0.00000000E+00  0.00000000E+00
  0.00000000E+00  0.00000000E+00  0.00000000E+00
  0.00000000E+00  0.00000000E+00  0.00000000E+00
  0.00000000E+00  0.00000000E+00  0.00000000E+00
  0.00000000E+00  0.00000000E+00  0.00000000E+00
  0.00000000E+00  0.00000000E+00  0.00000000E+00
  0.00000000E+00  0.00000000E+00  0.00000000E+00
  0.00000000E+00  0.00000000E+00  0.00000000E+00
  0.00000000E+00  0.00000000E+00  0.00000000E+00
  0.00000000E+00  0.00000000E+00  0.00000000E+00
  0.00000000E+00  0.00000000E+00  0.00000000E+00
  0.00000000E+00  0.00000000E+00  0.00000000E+00
  0.00000000E+00  0.00000000E+00  0.00000000E+00
  0.00000000E+00  0.00000000E+00  0.00000000E+00
  0.00000000E+00  0.00000000E+00  0.00000000E+00
  0.00000000E+00  0.00000000E+00  0.00000000E+00
  0.00000000E+00  0.00000000E+00  0.00000000E+00
  0.00000000E+00  0.00000000E+00  0.00000000E+00
  0.00000000E+00  0.00000000E+00  0.00000000E+00
  0.00000000E+00  0.00000000E+00  0.00000000E+00
  0.00000000E+00  0.00000000E+00  0.00000000E+00
  0.00000000E+00  0.00000000E+00  0.00000000E+00
  0.00000000E+00  0.00000000E+00  0.00000000E+00
  0.00000000E+00  0.00000000E+00  0.00000000E+00
  0.00000000E+00  0.00000000E+00  0.00000000E+00
  0.00000000E+00  0.00000000E+00  0.00000000E+00
  0.00000000E+00  0.00000000E+00  0.00000000E+00
  0.00000000E+00  0.00000000E+00  0.00000000E+00
  0.00000000E+00  0.00000000E+00  0.00000000E+00
  0.00000000E+00  0.00000000E+00  0.00000000E+00
  0.00000000E+00  0.00000000E+00  0.00000000E+00
  0.00000000E+00  0.00000000E+00  0.00000000E+00
  0.00000000E+00  0.00000000E+00  0.00000000E+00
  0.00000000E+00  0.00000000E+00  0.00000000E+00
  0.00000000E+00  0.00000000E+00  0.00000000E+00
  0.00000000E+00  0.00000000E+00  0.00000000E+00
  0.00000000E+00  0.00000000E+00  0.00000000E+00
  0.00000000E+00  0.00000000E+00  0.00000000E+00
  0.00000000E+00  0.00000000E+00  0.00000000E+00
  0.00000000E+00  0.00000000E+00  0.00000000E+00
  0.00000000E+00  0.00000000E+00  0.00000000E+00
  0.00000000E+00  0.00000000E+00  0.00000000E+00
  0.00000000E+00  0.00000000E+00  0.00000000E+00
  0.00000000E+00  0.00000000E+00  0.00000000E+00
  0.00000000E+00  0.00000000E+00  0.00000000E+00
  0.00000000E+00  0.00000000E+00  0.00000000E+00
  0.00000000E+00  0.00000000E+00  0.00000000E+00
  0.00000000E+00  0.00000000E+00  0.00000000E+00
  0.00000000E+00  0.00000000E+00  0.00000000E+00
  0.00000000E+00  0.00000000E+00  0.00000000E+00
  0.00000000E+00  0.00000000E+00  0.00000000E+00
  0.00000000E+00  0.00000000E+00  0.00000000E+00
  0.00000000E+00  0.00000000E+00  0.00000000E+00
  0.00000000E+00  0.00000000E+00  0.00000000E+00
  0.00000000E+00  0.00000000E+00  0.00000000E+00
  0.00000000E+00  0.00000000E+00  0.00000000E+00
  0.00000000E+00  0.00000000E+00  0.00000000E+00
  0.00000000E+00  0.00000000E+00  0.00000000E+00
  0.00000000E+00  0.00000000E+00  0.00000000E+00
  0.00000000E+00  0.00000000E+00  0.00000000E+00
  0.00000000E+00  0.00000000E+00  0.00000000E+00
  0.00000000E+00  0.00000000E+00  0.00000000E+00
  0.00000000E+00  0.00000000E+00  0.00000000E+00
  0.00000000E+00  0.00000000E+00  0.00000000E+00
  0.00000000E+00  0.00000000E+00  0.00000000E+00
  0.00000000E+00  0.00000000E+00  0.00000000E+00
  0.00000000E+00  0.00000000E+00  0.00000000E+00
  0.00000000E+00  0.00000000E+00  0.00000000E+00
  0.00000000E+00  0.00000000E+00  0.00000000E+00
  0.00000000E+00  0.00000000E+00  0.00000000E+00
  0.00000000E+00  0.00000000E+00  0.00000000E+00
  0.00000000E+00  0.00000000E+00  0.00000000E+00
  0.00000000E+00  0.00000000E+00  0.00000000E+00
  0.00000000E+00  0.00000000E+00  0.00000000E+00
  0.00000000E+00  0.00000000E+00  0.00000000E+00
  0.00000000E+00  0.00000000E+00  0.00000000E+00
  0.00000000E+00  0.00000000E+00  0.00000000E+00
  0.00000000E+00  0.00000000E+00  0.00000000E+00
  0.00000000E+00  0.00000000E+00  0.00000000E+00
  0.00000000E+00  0.00000000E+00  0.00000000E+00
