C  N  H  Cu O                           
   1.00000000000000     
    11.1029153023801186  -19.2338042452836575    0.0029768331959390
    11.1028064668630044   19.2337413553495509    0.0039341571825775
     0.0047130301019369    0.0003735853447813   14.2252669409466534
   C    N    H    Cu   O 
   194     8    17     1     3
Direct
  0.9997851130127183  0.9997605662287351  0.1191207336549841
  0.0368624401629444  0.0738551226583309  0.1184459763837568
  0.9998017905348774  0.1108792696190735  0.1180924373726554
  0.0368675284166126  0.1849661642224054  0.1168428012046521
  0.9998159514825669  0.2219958236825014  0.1161984554993338
  0.0368704637771982  0.2960782019974980  0.1145011809566127
  0.9998130207756216  0.3330998950617952  0.1138178127004039
  0.0368782261256945  0.4071823677572802  0.1124517866395020
  0.9997977057450513  0.4441955387669628  0.1126213042085836
  0.0368519788168945  0.5182764586832068  0.1126461979740154
  0.9997817684174840  0.5552971539527645  0.1136757648496982
  0.0368205522240587  0.6293724011274426  0.1148293725416378
  0.9997580415238467  0.6663918672274193  0.1161906802782255
  0.0368000661089905  0.7404701182644093  0.1174909380303931
  0.9997494209342412  0.7775037455370103  0.1184923034292215
  0.0368032654776087  0.8515922847318343  0.1191714437699509
  0.9997637523808467  0.8886325282531270  0.1193969926562209
  0.0368327926730229  0.9627305846743879  0.1193297202015072
  0.1109287999599010  0.9998121483964950  0.1185256307621745
  0.1479986378006215  0.0738942284808254  0.1168419910797914
  0.1109584172265472  0.1109220700458005  0.1170360505465013
  0.1480053962865478  0.1849892342818660  0.1151617597196659
  0.1109586921712282  0.2220137073783954  0.1154703645482694
  0.1480043166038459  0.2960916869123665  0.1138536936176431
  0.1109605768167209  0.3331317057196461  0.1133206679363990
  0.1480031123130899  0.4071942132105444  0.1114955088504196
  0.1109696684217673  0.4442177392460419  0.1112328558193992
  0.1480223111499135  0.5182881176107006  0.1107827994168211
  0.1109508120644039  0.5552931799638863  0.1120729010328572
  0.1479685421928748  0.6293692786977448  0.1133740647439150
  0.1109092690560326  0.6664007113234441  0.1148401164870945
  0.1479349464159095  0.7404794301140292  0.1162389139312467
  0.1108875647943570  0.7775152205148442  0.1174349889784598
  0.1479293917560751  0.8516031711381175  0.1182109835896412
  0.1108967550818828  0.8886552150579943  0.1188953270337510
  0.1479493580938844  0.9627483741695398  0.1184757337887517
  0.2220342210242039  0.9998256223939397  0.1172935979597659
  0.2590558780861623  0.0739005497271593  0.1153265471731280
  0.2220501253168474  0.1109434162476063  0.1147307943959146
  0.2590632747543384  0.1849785710249118  0.1128181578515528
  0.2220463595386467  0.2220174843283329  0.1130581390010673
  0.2590447632349487  0.2960618422623037  0.1124285370742390
  0.2220513997520556  0.3331154533880126  0.1128011028604408
  0.2590525959950727  0.4071685844577758  0.1124511704907401
  0.2220709277557639  0.4442213949808020  0.1113653653114771
  0.2590926664864731  0.5182790137806383  0.1114343435212818
  0.2220761476980640  0.5553031340220780  0.1108632209628084
  0.2590850978535906  0.6293419337815503  0.1123544971669254
  0.2220578761953430  0.6663809236275563  0.1135667526134279
  0.2590595574422215  0.7404593857645044  0.1154272095432396
  0.2220189239263847  0.7775118743179643  0.1164288090796488
  0.2590476369714912  0.8515974308378520  0.1173571650044333
  0.2220110252562037  0.8886539721414871  0.1178872949206771
  0.2590463422839955  0.9627483293235217  0.1175533593707868
  0.3331263821653166  0.9997944322023467  0.1169498040582250
  0.3701377231845464  0.0738831729080084  0.1156279150809060
  0.3331113875916230  0.1109423330631037  0.1143347883512606
  0.3701233085656377  0.1849883521432537  0.1125880081664319
  0.3330874505292929  0.2220002696234098  0.1118642486868742
  0.3701316178121586  0.2960681729359987  0.1119998978209969
  0.3331046107802133  0.3330940798383783  0.1125515946267961
  0.3701306237839236  0.4071465700454853  0.1143374817033433
  0.3331099265163263  0.4441847591307513  0.1140869417191397
  0.3701294655399464  0.5182434566487772  0.1152386309509971
  0.3331084232095027  0.5552750300671137  0.1136507329520747
  0.3701634655253366  0.6293273631483490  0.1145202337465660
  0.3331296772917962  0.6663509796159339  0.1139944541653535
  0.3701537393003975  0.7404136359603184  0.1156128299304922
  0.3331364174332903  0.7774923317273202  0.1161132858990038
  0.3701576081815314  0.8515771511534345  0.1170261908780755
  0.3331270790290321  0.8886378792997819  0.1173472727004871
  0.3701533228344912  0.9627302045689333  0.1172432610224873
  0.4442262189148215  0.9997657000677982  0.1168935755048604
  0.4812431363752705  0.0738512396451331  0.1159885737121569
  0.4442157264518949  0.1109155458386928  0.1151599128124249
  0.4812267589850853  0.1850020574471522  0.1136021023490159
  0.4441890821831910  0.2220350074004309  0.1125138303032741
  0.4812431501086973  0.2960934609168251  0.1120129795280456
  0.4441938822123611  0.3330980189503406  0.1125647673652727
  0.4812152009275170  0.4071135210412025  0.1148490848777935
  0.4441713357897387  0.4441323174982412  0.1162223227589182
  0.4812026858896047  0.5181859303028297  0.1179034734377275
  0.4441847834341815  0.5552505209560195  0.1171473246539289
  0.4812526852838444  0.6293127426903526  0.1164816473236169
  0.4442004181265078  0.6663271613536893  0.1157194437283790
  0.4812688848764521  0.7403953816991296  0.1155140690258263
  0.4442406366371235  0.7774484268471209  0.1161209442207527
  0.4812619220778197  0.8515430285592713  0.1165696811605214
  0.4442373003794153  0.8886121412025310  0.1170723468192201
  0.4812567799321361  0.9627003596015327  0.1170262877507527
  0.5553295372882376  0.9997325594936145  0.1166992009686167
  0.5923540925502006  0.0738238860596545  0.1161492839808682
  0.5553208103418450  0.1108826129400197  0.1155083953612319
  0.5923359432660514  0.1849640242983931  0.1140581512057360
  0.5553116777800595  0.2220344508005789  0.1129630258594398
  0.5923386855281467  0.2960977576403211  0.1114769475567527
  0.5552770625393859  0.3330958656208648  0.1118213398311198
  0.5923395472647872  0.4071381733579327  0.1130186544377643
  0.5552875869405347  0.4441307191764420  0.1152409164292166
  0.5923361523984931  0.5181799780830292  0.1169171102140049
  0.5553058510836990  0.5552280031181626  0.1179171421416711
  0.5923388142356084  0.6292979329146440  0.1164028803387035
  0.5553085500271671  0.6663308002972704  0.1154825762040908
  0.5923636745660863  0.7403818785957377  0.1133237668305464
  0.5553413208125053  0.7774151078613966  0.1141906130508407
  0.5923592196401611  0.8514902931313434  0.1143632373079854
  0.5553399019412023  0.8885685314724122  0.1159578862027843
  0.5923552906365716  0.9626637751584652  0.1163446411815597
  0.6664336360616525  0.9997039608442760  0.1161184549299697
  0.7034686834863439  0.0738014736643619  0.1163228314095726
  0.6664305426472148  0.1108586901559722  0.1159101150830080
  0.7034571913616439  0.1849452663513892  0.1149003652878274
  0.6664166938225163  0.2219986393885953  0.1136667772563707
  0.7034207042056504  0.2960813794466476  0.1121610712930427
  0.6663953219739354  0.3331183981261148  0.1109513226232602
  0.7034257915228256  0.4071635152062298  0.1112228211440496
  0.6663894837414427  0.4441622623808169  0.1127776637865198
  0.7034167529716487  0.5182015575182236  0.1146713911569973
  0.6663937821843099  0.5552214753276822  0.1163029972722280
  0.7033988091070574  0.6292918115046678  0.1163631623200039
  0.6663951010049256  0.6663339277649937  0.1151914215332384
  0.7033990344484572  0.7403744261398378  0.1132849080763716
  0.6663837669092465  0.7773978546333968  0.1120213929312173
  0.7034170517907604  0.8514597081834960  0.1123655189335681
  0.6664225532397323  0.8885288524177770  0.1135700137055171
  0.7034472942753462  0.9626237760650515  0.1152665516323880
  0.7775300907570747  0.9997016338046351  0.1161493120078490
  0.8145812491188088  0.0737964458393129  0.1168944313148046
  0.7775480745933346  0.1108484808577719  0.1164350386481663
  0.8145905725451340  0.1849392318708153  0.1158167870110827
  0.7775418052605666  0.2219762868379418  0.1148291887323132
  0.8145682341837595  0.2960592957724276  0.1137902288130933
  0.7775082981638524  0.3330949459650931  0.1126540577476535
  0.8145357343213403  0.4071739567097803  0.1123044328056207
  0.7774710329306063  0.4441809899917178  0.1119025906328357
  0.8145176611647503  0.5182278215911206  0.1135620865653665
  0.7774713833112764  0.5552352950398517  0.1148864858706463
  0.8145114270134175  0.6292996418808495  0.1165451096818366
  0.7774640101577600  0.6663331351317218  0.1167165947962101
  0.8145065382503792  0.7404228140744855  0.1166932425835003
  0.7774594183419347  0.7774309284415291  0.1147351802209267
  0.8145190448436805  0.8515093257099987  0.1153679626698370
  0.7774794649331397  0.8885408504678487  0.1142120058169519
  0.8145450493478714  0.9626262656732804  0.1161292757023846
  0.8886381317820244  0.9997139197077812  0.1178005157431169
  0.9257066445370037  0.0738146451402237  0.1180821491594618
  0.8886709332309090  0.1108566524490265  0.1173894391650214
  0.9257263152180062  0.1849457573486664  0.1166614467755413
  0.8886760570937903  0.2219801483999060  0.1157265667157052
  0.9257193201847617  0.2960594024001659  0.1144996457034207
  0.8886596297583405  0.3330843643085468  0.1137220128857970
  0.9257028726250700  0.4071632161547503  0.1130565126290869
  0.8886323181000974  0.4441853158734555  0.1129307476747031
  0.9256870001332487  0.5182623052137464  0.1135947815271563
  0.8886005488124751  0.5552657658391023  0.1144033990042547
  0.9256644759979943  0.6293449311830690  0.1160045673391965
  0.8886047023255560  0.6663621172365892  0.1170436291932710
  0.9256579862799855  0.7404480587358280  0.1181592091667341
  0.8886034730463658  0.7774785734828239  0.1180563123868269
  0.9256679441773806  0.8515657800574176  0.1186383029582593
  0.8886042106633200  0.8885859894061245  0.1177344168179069
  0.9256819373300685  0.9626833969694983  0.1184720373578796
  0.2661496879766053  0.1302736631590480  0.3509750664848090
  0.3355099309775160  0.1840333752001438  0.3466862814193223
  0.3484271843509160  0.2522622727536487  0.3417167039827686
  0.2927175168838331  0.2665152151551466  0.3411336354313279
  0.2237006430437414  0.2127725228311083  0.3456535712187223
  0.2110273750525003  0.1444192073478839  0.3505904085990785
  0.3244102926891098  0.3425325268423787  0.3376284603202006
  0.4130632231050372  0.3199261756310877  0.3385133420856136
  0.3196695467482585  0.4460343674789824  0.3482493980313240
  0.3975105906285499  0.5608095996817668  0.3658134348039751
  0.2797432874757299  0.4822137433300892  0.3476425204358246
  0.3284475002954059  0.5540282646075482  0.3570411588245885
  0.3068280253694106  0.6032768864156430  0.3554180087395428
  0.2356131382409724  0.5792129438265993  0.3460149448655517
  0.1870946867957122  0.5076583973964953  0.3384291085400289
  0.2086802478088960  0.4582894458315425  0.3386412948128705
  0.5347598580606656  0.3912663337060773  0.3492640215908369
  0.6107184387756893  0.5066418755208031  0.3658335517395061
  0.6278918537552909  0.3521069112075941  0.3406199303722786
  0.6997468659774294  0.3780341763068478  0.3403314550183409
  0.7470261654859527  0.4498935218953582  0.3475120107310389
  0.7237691315203917  0.4977296037058058  0.3564130780898735
  0.6520734807915375  0.4719319674297098  0.3578698146767200
  0.6045944349605515  0.3997574940376952  0.3490537532912595
  0.6111985697837452  0.6140648229270879  0.3766679585085645
  0.5199892598840005  0.6373487616278771  0.3772740644968617
  0.6399924962465883  0.6878177717991051  0.3553739802750196
  0.7083159371007010  0.7410363752694800  0.3407863316196888
  0.7207931903196155  0.8091410167805366  0.3318812378430772
  0.6657585945671853  0.8232814012859695  0.3321941182231734
  0.5966134220792437  0.7697630850714764  0.3416378054495214
  0.5839418114442518  0.7021940492878085  0.3558235658803921
  0.3953989501478986  0.3710193476411170  0.3337891288377123
  0.2896412869169798  0.3769133218563378  0.3408423483326568
  0.3894161379277273  0.4944939211862280  0.3595149632952077
  0.4770333767728566  0.3291817604171641  0.3422093461868798
  0.5407015891434005  0.4560144630873940  0.3595270140962073
  0.6415652379009149  0.5760278267022507  0.3703195547066838
  0.5422924651408326  0.5907879207530411  0.4023124075689763
  0.4549270813597981  0.6234477125417266  0.3707942660020034
  0.2544792363162258  0.0764373673511049  0.3544499704903648
  0.3783235939513067  0.1733301983167981  0.3471334444828672
  0.1812996279337763  0.2240934297005514  0.3451861881634158
  0.1576303541933106  0.1013236508532443  0.3537153420758695
  0.3446091154390915  0.6585611264635449  0.3607664692618422
  0.2172233661794966  0.6164382569721595  0.3436209698442968
  0.1320546959656185  0.4907646926519046  0.3308105403168224
  0.1717676731013192  0.4029465075232442  0.3312129964037263
  0.5909527777854936  0.2967389366568078  0.3335926292675115
  0.7196225262737296  0.3422530722168398  0.3328096968594044
  0.8026791538797516  0.4684573222166886  0.3452525862552104
  0.7600212169259811  0.5534156982884337  0.3614213140323271
  0.7506582466375549  0.7296638406713311  0.3389561881280265
  0.7739505793740360  0.8518185681141645  0.3234860014153311
  0.6771086529420747  0.8767548663070351  0.3242581212455065
  0.5537852124159737  0.7804146486282595  0.3406859707072757
  0.4905594217851517  0.4541181068069969  0.6179012408891923
  0.4569723503729528  0.4630870967905216  0.3755585666273712
  0.5072835024507036  0.5383669763882493  0.4617638770409783
  0.4200419043550698  0.3993020154175327  0.5317823853068846
  0.4743590700434490  0.4083482621888160  0.5883613836476800
 
  0.00000000E+00  0.00000000E+00  0.00000000E+00
  0.00000000E+00  0.00000000E+00  0.00000000E+00
  0.00000000E+00  0.00000000E+00  0.00000000E+00
  0.00000000E+00  0.00000000E+00  0.00000000E+00
  0.00000000E+00  0.00000000E+00  0.00000000E+00
  0.00000000E+00  0.00000000E+00  0.00000000E+00
  0.00000000E+00  0.00000000E+00  0.00000000E+00
  0.00000000E+00  0.00000000E+00  0.00000000E+00
  0.00000000E+00  0.00000000E+00  0.00000000E+00
  0.00000000E+00  0.00000000E+00  0.00000000E+00
  0.00000000E+00  0.00000000E+00  0.00000000E+00
  0.00000000E+00  0.00000000E+00  0.00000000E+00
  0.00000000E+00  0.00000000E+00  0.00000000E+00
  0.00000000E+00  0.00000000E+00  0.00000000E+00
  0.00000000E+00  0.00000000E+00  0.00000000E+00
  0.00000000E+00  0.00000000E+00  0.00000000E+00
  0.00000000E+00  0.00000000E+00  0.00000000E+00
  0.00000000E+00  0.00000000E+00  0.00000000E+00
  0.00000000E+00  0.00000000E+00  0.00000000E+00
  0.00000000E+00  0.00000000E+00  0.00000000E+00
  0.00000000E+00  0.00000000E+00  0.00000000E+00
  0.00000000E+00  0.00000000E+00  0.00000000E+00
  0.00000000E+00  0.00000000E+00  0.00000000E+00
  0.00000000E+00  0.00000000E+00  0.00000000E+00
  0.00000000E+00  0.00000000E+00  0.00000000E+00
  0.00000000E+00  0.00000000E+00  0.00000000E+00
  0.00000000E+00  0.00000000E+00  0.00000000E+00
  0.00000000E+00  0.00000000E+00  0.00000000E+00
  0.00000000E+00  0.00000000E+00  0.00000000E+00
  0.00000000E+00  0.00000000E+00  0.00000000E+00
  0.00000000E+00  0.00000000E+00  0.00000000E+00
  0.00000000E+00  0.00000000E+00  0.00000000E+00
  0.00000000E+00  0.00000000E+00  0.00000000E+00
  0.00000000E+00  0.00000000E+00  0.00000000E+00
  0.00000000E+00  0.00000000E+00  0.00000000E+00
  0.00000000E+00  0.00000000E+00  0.00000000E+00
  0.00000000E+00  0.00000000E+00  0.00000000E+00
  0.00000000E+00  0.00000000E+00  0.00000000E+00
  0.00000000E+00  0.00000000E+00  0.00000000E+00
  0.00000000E+00  0.00000000E+00  0.00000000E+00
  0.00000000E+00  0.00000000E+00  0.00000000E+00
  0.00000000E+00  0.00000000E+00  0.00000000E+00
  0.00000000E+00  0.00000000E+00  0.00000000E+00
  0.00000000E+00  0.00000000E+00  0.00000000E+00
  0.00000000E+00  0.00000000E+00  0.00000000E+00
  0.00000000E+00  0.00000000E+00  0.00000000E+00
  0.00000000E+00  0.00000000E+00  0.00000000E+00
  0.00000000E+00  0.00000000E+00  0.00000000E+00
  0.00000000E+00  0.00000000E+00  0.00000000E+00
  0.00000000E+00  0.00000000E+00  0.00000000E+00
  0.00000000E+00  0.00000000E+00  0.00000000E+00
  0.00000000E+00  0.00000000E+00  0.00000000E+00
  0.00000000E+00  0.00000000E+00  0.00000000E+00
  0.00000000E+00  0.00000000E+00  0.00000000E+00
  0.00000000E+00  0.00000000E+00  0.00000000E+00
  0.00000000E+00  0.00000000E+00  0.00000000E+00
  0.00000000E+00  0.00000000E+00  0.00000000E+00
  0.00000000E+00  0.00000000E+00  0.00000000E+00
  0.00000000E+00  0.00000000E+00  0.00000000E+00
  0.00000000E+00  0.00000000E+00  0.00000000E+00
  0.00000000E+00  0.00000000E+00  0.00000000E+00
  0.00000000E+00  0.00000000E+00  0.00000000E+00
  0.00000000E+00  0.00000000E+00  0.00000000E+00
  0.00000000E+00  0.00000000E+00  0.00000000E+00
  0.00000000E+00  0.00000000E+00  0.00000000E+00
  0.00000000E+00  0.00000000E+00  0.00000000E+00
  0.00000000E+00  0.00000000E+00  0.00000000E+00
  0.00000000E+00  0.00000000E+00  0.00000000E+00
  0.00000000E+00  0.00000000E+00  0.00000000E+00
  0.00000000E+00  0.00000000E+00  0.00000000E+00
  0.00000000E+00  0.00000000E+00  0.00000000E+00
  0.00000000E+00  0.00000000E+00  0.00000000E+00
  0.00000000E+00  0.00000000E+00  0.00000000E+00
  0.00000000E+00  0.00000000E+00  0.00000000E+00
  0.00000000E+00  0.00000000E+00  0.00000000E+00
  0.00000000E+00  0.00000000E+00  0.00000000E+00
  0.00000000E+00  0.00000000E+00  0.00000000E+00
  0.00000000E+00  0.00000000E+00  0.00000000E+00
  0.00000000E+00  0.00000000E+00  0.00000000E+00
  0.00000000E+00  0.00000000E+00  0.00000000E+00
  0.00000000E+00  0.00000000E+00  0.00000000E+00
  0.00000000E+00  0.00000000E+00  0.00000000E+00
  0.00000000E+00  0.00000000E+00  0.00000000E+00
  0.00000000E+00  0.00000000E+00  0.00000000E+00
  0.00000000E+00  0.00000000E+00  0.00000000E+00
  0.00000000E+00  0.00000000E+00  0.00000000E+00
  0.00000000E+00  0.00000000E+00  0.00000000E+00
  0.00000000E+00  0.00000000E+00  0.00000000E+00
  0.00000000E+00  0.00000000E+00  0.00000000E+00
  0.00000000E+00  0.00000000E+00  0.00000000E+00
  0.00000000E+00  0.00000000E+00  0.00000000E+00
  0.00000000E+00  0.00000000E+00  0.00000000E+00
  0.00000000E+00  0.00000000E+00  0.00000000E+00
  0.00000000E+00  0.00000000E+00  0.00000000E+00
  0.00000000E+00  0.00000000E+00  0.00000000E+00
  0.00000000E+00  0.00000000E+00  0.00000000E+00
  0.00000000E+00  0.00000000E+00  0.00000000E+00
  0.00000000E+00  0.00000000E+00  0.00000000E+00
  0.00000000E+00  0.00000000E+00  0.00000000E+00
  0.00000000E+00  0.00000000E+00  0.00000000E+00
  0.00000000E+00  0.00000000E+00  0.00000000E+00
  0.00000000E+00  0.00000000E+00  0.00000000E+00
  0.00000000E+00  0.00000000E+00  0.00000000E+00
  0.00000000E+00  0.00000000E+00  0.00000000E+00
  0.00000000E+00  0.00000000E+00  0.00000000E+00
  0.00000000E+00  0.00000000E+00  0.00000000E+00
  0.00000000E+00  0.00000000E+00  0.00000000E+00
  0.00000000E+00  0.00000000E+00  0.00000000E+00
  0.00000000E+00  0.00000000E+00  0.00000000E+00
  0.00000000E+00  0.00000000E+00  0.00000000E+00
  0.00000000E+00  0.00000000E+00  0.00000000E+00
  0.00000000E+00  0.00000000E+00  0.00000000E+00
  0.00000000E+00  0.00000000E+00  0.00000000E+00
  0.00000000E+00  0.00000000E+00  0.00000000E+00
  0.00000000E+00  0.00000000E+00  0.00000000E+00
  0.00000000E+00  0.00000000E+00  0.00000000E+00
  0.00000000E+00  0.00000000E+00  0.00000000E+00
  0.00000000E+00  0.00000000E+00  0.00000000E+00
  0.00000000E+00  0.00000000E+00  0.00000000E+00
  0.00000000E+00  0.00000000E+00  0.00000000E+00
  0.00000000E+00  0.00000000E+00  0.00000000E+00
  0.00000000E+00  0.00000000E+00  0.00000000E+00
  0.00000000E+00  0.00000000E+00  0.00000000E+00
  0.00000000E+00  0.00000000E+00  0.00000000E+00
  0.00000000E+00  0.00000000E+00  0.00000000E+00
  0.00000000E+00  0.00000000E+00  0.00000000E+00
  0.00000000E+00  0.00000000E+00  0.00000000E+00
  0.00000000E+00  0.00000000E+00  0.00000000E+00
  0.00000000E+00  0.00000000E+00  0.00000000E+00
  0.00000000E+00  0.00000000E+00  0.00000000E+00
  0.00000000E+00  0.00000000E+00  0.00000000E+00
  0.00000000E+00  0.00000000E+00  0.00000000E+00
  0.00000000E+00  0.00000000E+00  0.00000000E+00
  0.00000000E+00  0.00000000E+00  0.00000000E+00
  0.00000000E+00  0.00000000E+00  0.00000000E+00
  0.00000000E+00  0.00000000E+00  0.00000000E+00
  0.00000000E+00  0.00000000E+00  0.00000000E+00
  0.00000000E+00  0.00000000E+00  0.00000000E+00
  0.00000000E+00  0.00000000E+00  0.00000000E+00
  0.00000000E+00  0.00000000E+00  0.00000000E+00
  0.00000000E+00  0.00000000E+00  0.00000000E+00
  0.00000000E+00  0.00000000E+00  0.00000000E+00
  0.00000000E+00  0.00000000E+00  0.00000000E+00
  0.00000000E+00  0.00000000E+00  0.00000000E+00
  0.00000000E+00  0.00000000E+00  0.00000000E+00
  0.00000000E+00  0.00000000E+00  0.00000000E+00
  0.00000000E+00  0.00000000E+00  0.00000000E+00
  0.00000000E+00  0.00000000E+00  0.00000000E+00
  0.00000000E+00  0.00000000E+00  0.00000000E+00
  0.00000000E+00  0.00000000E+00  0.00000000E+00
  0.00000000E+00  0.00000000E+00  0.00000000E+00
  0.00000000E+00  0.00000000E+00  0.00000000E+00
  0.00000000E+00  0.00000000E+00  0.00000000E+00
  0.00000000E+00  0.00000000E+00  0.00000000E+00
  0.00000000E+00  0.00000000E+00  0.00000000E+00
  0.00000000E+00  0.00000000E+00  0.00000000E+00
  0.00000000E+00  0.00000000E+00  0.00000000E+00
  0.00000000E+00  0.00000000E+00  0.00000000E+00
  0.00000000E+00  0.00000000E+00  0.00000000E+00
  0.00000000E+00  0.00000000E+00  0.00000000E+00
  0.00000000E+00  0.00000000E+00  0.00000000E+00
  0.00000000E+00  0.00000000E+00  0.00000000E+00
  0.00000000E+00  0.00000000E+00  0.00000000E+00
  0.00000000E+00  0.00000000E+00  0.00000000E+00
  0.00000000E+00  0.00000000E+00  0.00000000E+00
  0.00000000E+00  0.00000000E+00  0.00000000E+00
  0.00000000E+00  0.00000000E+00  0.00000000E+00
  0.00000000E+00  0.00000000E+00  0.00000000E+00
  0.00000000E+00  0.00000000E+00  0.00000000E+00
  0.00000000E+00  0.00000000E+00  0.00000000E+00
  0.00000000E+00  0.00000000E+00  0.00000000E+00
  0.00000000E+00  0.00000000E+00  0.00000000E+00
  0.00000000E+00  0.00000000E+00  0.00000000E+00
  0.00000000E+00  0.00000000E+00  0.00000000E+00
  0.00000000E+00  0.00000000E+00  0.00000000E+00
  0.00000000E+00  0.00000000E+00  0.00000000E+00
  0.00000000E+00  0.00000000E+00  0.00000000E+00
  0.00000000E+00  0.00000000E+00  0.00000000E+00
  0.00000000E+00  0.00000000E+00  0.00000000E+00
  0.00000000E+00  0.00000000E+00  0.00000000E+00
  0.00000000E+00  0.00000000E+00  0.00000000E+00
  0.00000000E+00  0.00000000E+00  0.00000000E+00
  0.00000000E+00  0.00000000E+00  0.00000000E+00
  0.00000000E+00  0.00000000E+00  0.00000000E+00
  0.00000000E+00  0.00000000E+00  0.00000000E+00
  0.00000000E+00  0.00000000E+00  0.00000000E+00
  0.00000000E+00  0.00000000E+00  0.00000000E+00
  0.00000000E+00  0.00000000E+00  0.00000000E+00
  0.00000000E+00  0.00000000E+00  0.00000000E+00
  0.00000000E+00  0.00000000E+00  0.00000000E+00
  0.00000000E+00  0.00000000E+00  0.00000000E+00
  0.00000000E+00  0.00000000E+00  0.00000000E+00
  0.00000000E+00  0.00000000E+00  0.00000000E+00
  0.00000000E+00  0.00000000E+00  0.00000000E+00
  0.00000000E+00  0.00000000E+00  0.00000000E+00
  0.00000000E+00  0.00000000E+00  0.00000000E+00
  0.00000000E+00  0.00000000E+00  0.00000000E+00
  0.00000000E+00  0.00000000E+00  0.00000000E+00
  0.00000000E+00  0.00000000E+00  0.00000000E+00
  0.00000000E+00  0.00000000E+00  0.00000000E+00
  0.00000000E+00  0.00000000E+00  0.00000000E+00
  0.00000000E+00  0.00000000E+00  0.00000000E+00
  0.00000000E+00  0.00000000E+00  0.00000000E+00
  0.00000000E+00  0.00000000E+00  0.00000000E+00
  0.00000000E+00  0.00000000E+00  0.00000000E+00
  0.00000000E+00  0.00000000E+00  0.00000000E+00
  0.00000000E+00  0.00000000E+00  0.00000000E+00
  0.00000000E+00  0.00000000E+00  0.00000000E+00
  0.00000000E+00  0.00000000E+00  0.00000000E+00
  0.00000000E+00  0.00000000E+00  0.00000000E+00
  0.00000000E+00  0.00000000E+00  0.00000000E+00
  0.00000000E+00  0.00000000E+00  0.00000000E+00
  0.00000000E+00  0.00000000E+00  0.00000000E+00
  0.00000000E+00  0.00000000E+00  0.00000000E+00
  0.00000000E+00  0.00000000E+00  0.00000000E+00
  0.00000000E+00  0.00000000E+00  0.00000000E+00
  0.00000000E+00  0.00000000E+00  0.00000000E+00
  0.00000000E+00  0.00000000E+00  0.00000000E+00
  0.00000000E+00  0.00000000E+00  0.00000000E+00
  0.00000000E+00  0.00000000E+00  0.00000000E+00
  0.00000000E+00  0.00000000E+00  0.00000000E+00
  0.00000000E+00  0.00000000E+00  0.00000000E+00
  0.00000000E+00  0.00000000E+00  0.00000000E+00
