C  N  H  Cu O                           
   1.00000000000000     
    11.1535200114466004  -19.3193486123013223    0.0000000000000000
    11.1535200114466004   19.3193486123013223    0.0000000000000000
     0.0000000000000000    0.0000000000000000   16.0000000000000000
   C    N    H    Cu   O 
   206     4    29     1     2
Direct
  0.0000313551867967  0.9999941228418862  0.1134825007802294
  0.0370849439062841  0.0740794355051671  0.1134347554440824
  0.0000388411916755  0.1111125546469567  0.1132634828767233
  0.0370874620471930  0.1851939024840406  0.1133096012004341
  0.0000442333518163  0.2222278614982347  0.1130238770157038
  0.0370871767110838  0.2963035774104393  0.1131405281374957
  0.0000438886544289  0.3333377623766510  0.1128429644785138
  0.0370834890089641  0.4074125027538651  0.1129629938429434
  0.0000388902780492  0.4444459003569644  0.1127780118413990
  0.0370735000127298  0.5185194895811307  0.1128562347017217
  0.0000296094002105  0.5555530988685056  0.1128315288273768
  0.0370672437304316  0.6296268854877922  0.1128519970021580
  0.0000223126813630  0.6666602971247353  0.1129938239694977
  0.0370649076172201  0.7407354681243231  0.1129685900463537
  0.0000218867465654  0.7777691689975124  0.1132544708328258
  0.0370699497903471  0.8518490991455495  0.1132104759073852
  0.0000322864217269  0.8888855191800936  0.1134766164792852
  0.0370796924025978  0.9629660566356022  0.1134254207593493
  0.1111607033009550  0.0000136683685371  0.1133946056298598
  0.1482101948811915  0.0740931633026252  0.1136609019278242
  0.1111696986605743  0.1111230450644830  0.1135905795749327
  0.1482209386552143  0.1852053967297571  0.1138117916319677
  0.1111718762757505  0.2222339122478453  0.1137358388155384
  0.1482144830562590  0.2963130115782663  0.1141580165333839
  0.1111657516937380  0.3333408577497918  0.1137765286265192
  0.1482112349695635  0.4074174834638587  0.1140397580369074
  0.1111632606798461  0.4444471660965860  0.1135125691663755
  0.1482016617066181  0.5185219277616548  0.1136456537057088
  0.1111536524782170  0.5555529282335812  0.1131950502746844
  0.1481906621019080  0.6296272841580765  0.1132474221474995
  0.1111465336854061  0.6666640026024243  0.1129600603786776
  0.1481880292626650  0.7407414462842994  0.1129552618140840
  0.1111447990386906  0.7777775140358698  0.1128542664159878
  0.1481881648600326  0.8518556110730989  0.1128941902931551
  0.1111505707746201  0.8888952914559142  0.1130216452232927
  0.1481952129069607  0.9629742631352765  0.1132070642130007
  0.2222727518533248  0.0000208291069404  0.1133184105470800
  0.2593124531787658  0.0740986622061360  0.1138065685408187
  0.2222819267520357  0.1111401595672382  0.1140113023610303
  0.2593236110540834  0.1852101355570265  0.1145738653116403
  0.2222932218685275  0.2222381276100313  0.1144343628505340
  0.2593351828724452  0.2963131407395223  0.1150752218004372
  0.2222937545093498  0.3333504429820017  0.1149065786553037
  0.2593367892765094  0.4074251265989781  0.1153732778778778
  0.2222875906092292  0.4444466623069383  0.1148504720429960
  0.2593278837947068  0.5185220020313239  0.1149304480754271
  0.2222826871688717  0.5555548334903070  0.1142407451048096
  0.2593306729403291  0.6296310306895802  0.1140669759611592
  0.2222760781207769  0.6666632842045640  0.1136148750053267
  0.2593151279694604  0.7407428503231807  0.1135681329663960
  0.2222672144547062  0.7777795360473023  0.1131843705318607
  0.2593045015653374  0.8518567050411635  0.1131036329355662
  0.2222659445194620  0.8888973689160041  0.1129694217048674
  0.2593049184255533  0.9629771117784897  0.1131445238997101
  0.3333813289414105  0.0000168148861677  0.1132971447236820
  0.3704169832298386  0.0740959481019751  0.1137319673205071
  0.3333868400780129  0.1111418866159912  0.1141094303542637
  0.3704243887299324  0.1852153435008810  0.1148653387654168
  0.3333936254555803  0.2222518450060397  0.1151895903153242
  0.3704372008781806  0.2963163786818112  0.1159249488577900
  0.3334095001178674  0.3333542088341395  0.1159188325445719
  0.3704430811964362  0.4074238334843057  0.1164451140986637
  0.3334052790324510  0.4444545886855956  0.1161250169356087
  0.3704458865774888  0.5185242166394667  0.1162174330522491
  0.3334078867219979  0.5555601666230691  0.1155052980338308
  0.3704416764785068  0.6296357750812974  0.1152186530979261
  0.3334023382784559  0.6666652847088729  0.1144950540764824
  0.3704226420138848  0.7407274591843147  0.1143047509606882
  0.3333898897685822  0.7777674875301940  0.1138223126886783
  0.3704160866985278  0.8518462015513942  0.1135441395593904
  0.3333812072643739  0.8888897163273672  0.1132427222371447
  0.3704140026099733  0.9629702394026318  0.1132238771974253
  0.4444880216951943  0.0000076094024732  0.1132851927843260
  0.4815208395501687  0.0740887707202098  0.1135088002691070
  0.4444922150719845  0.1111365956081014  0.1138944072700661
  0.4815256690563244  0.1852145778634373  0.1145264100099731
  0.4444949294739606  0.2222558539274498  0.1151375620078985
  0.4815251483771147  0.2963184892947621  0.1158582200221197
  0.4445017505075839  0.3333555289205240  0.1163285994089331
  0.4815294100652313  0.4074175272114317  0.1168059455682861
  0.4445089080199955  0.4444582825280739  0.1168904330677446
  0.4815389159347925  0.5185205403417366  0.1169823181799953
  0.4445126093303937  0.5555583533685516  0.1166411071229188
  0.4815352506660706  0.6296226960399127  0.1163344011883762
  0.4445054907371343  0.6666568300360004  0.1156557041614948
  0.4815267622891360  0.7407213939398952  0.1151493526318576
  0.4444919267760778  0.7777565327723182  0.1145022829900768
  0.4815183332763231  0.8518314938769731  0.1139723302447337
  0.4444882201386888  0.8888790879550151  0.1135660888691813
  0.4815183711917269  0.9629586829841038  0.1133072395230742
  0.5555925580471535  0.9999958451339276  0.1132365851383432
  0.5926232842242177  0.0740764303240225  0.1132068405848853
  0.5555940637051883  0.1111258296524456  0.1134919267663453
  0.5926220935058683  0.1852026334478624  0.1138391394218935
  0.5555963008965121  0.2222479032533635  0.1144658921555648
  0.5926234769751345  0.2963157693146717  0.1149204439054275
  0.5555918237269849  0.3333468474648960  0.1157507426511347
  0.5926133057169268  0.4074134630432554  0.1161672500155154
  0.5555883648470764  0.4444536347651917  0.1167617941179174
  0.5926171948642663  0.5185137351603741  0.1168428038841564
  0.5555962461779144  0.5555532219896936  0.1169758940279455
  0.5926161014707796  0.6296132477151540  0.1166376313565297
  0.5555964035927189  0.6666517376170698  0.1163394427324002
  0.5926232891913946  0.7407122577786169  0.1156567289679884
  0.5555943149435252  0.7777502599162875  0.1151061441204661
  0.5926218770842734  0.8518215627028992  0.1143465121533317
  0.5555913035138990  0.8888678287834028  0.1138644893186015
  0.5926228598337943  0.9629475004137790  0.1133748378581176
  0.6666977078248340  0.9999859670876317  0.1132039491322419
  0.7037314146333322  0.0740652835428697  0.1129510937775091
  0.6666961250724093  0.1111095305500456  0.1130718902985227
  0.7037266182800553  0.1851892232738847  0.1131562944056378
  0.6666907369415548  0.2222304561847887  0.1135736495274824
  0.7037150038464556  0.2963006487474124  0.1137161382342185
  0.6666811785459575  0.3333359524042697  0.1144051819819110
  0.7037167817030414  0.4074034276321503  0.1147206177221411
  0.6666813087455037  0.4444468259277589  0.1156175394831202
  0.7037165972069614  0.5185207685332743  0.1157426940836763
  0.6666756436318590  0.5555407494472862  0.1163489642874629
  0.7037094067287745  0.6296121677959932  0.1160253430482668
  0.6666824911951140  0.6666552122124451  0.1161519079532578
  0.7037194137395569  0.7407189631305097  0.1154606304065163
  0.6666875738014749  0.7777498825353159  0.1152850170963288
  0.7037243013385532  0.8518189107045248  0.1145148947259484
  0.6666955941999598  0.8888628381576805  0.1140961121374954
  0.7037295966687442  0.9629397877864602  0.1134552376879833
  0.7778039096396031  0.9999811329695560  0.1132523603646580
  0.8148432142258265  0.0740603146523447  0.1128825693964143
  0.7778082056572051  0.1111024613201015  0.1127910061129993
  0.8148466428587275  0.1851806192206684  0.1127083234789747
  0.7778050359212628  0.2222197351060010  0.1129199771463059
  0.8148428945435715  0.2962963046951806  0.1129864836588518
  0.7777929975728746  0.3333322002498876  0.1133863905870971
  0.8148370692295351  0.4074128810405485  0.1135328664436728
  0.7777929484838629  0.4444446430853929  0.1141827841774270
  0.8148290012784025  0.5185206488066914  0.1142240654045225
  0.7777842789683268  0.5555485605278730  0.1149489103826195
  0.8148253639217784  0.6296187052533238  0.1147668092081091
  0.7777809230965445  0.6666487645599589  0.1152466475917337
  0.8148151947581850  0.7407281660088731  0.1147399128282971
  0.7777808383278906  0.7777580845982401  0.1148003657340370
  0.8148206964502875  0.8518224836652817  0.1142743860976141
  0.7777942965131842  0.8888611778492747  0.1141271440187360
  0.8148336259960571  0.9629358320190321  0.1135512495953281
  0.8889115529206866  0.9999864162859934  0.1133927073693343
  0.9259566590971263  0.0740660736286919  0.1131143524804264
  0.8889215131388125  0.1111060353359513  0.1128583470647447
  0.9259646282349396  0.1851838920680782  0.1127531129961335
  0.8889245036222968  0.2222218314052830  0.1126398152011429
  0.9259644493975694  0.2962985886901804  0.1126547005571152
  0.8889229972061620  0.3333354727943132  0.1127539925509396
  0.9259598033362297  0.4074112895395787  0.1127810077779932
  0.8889173831192368  0.4444466326951039  0.1130815494482616
  0.9259499236693186  0.5185190669191456  0.1130633279947681
  0.8889038319287410  0.5555499240494726  0.1135207846951907
  0.9259442845860248  0.6296236515432870  0.1134308524329678
  0.8888986356892131  0.6666525367772801  0.1139607192793121
  0.9259436227640544  0.7407278592363910  0.1137812811174189
  0.8888969304177425  0.7777596410986181  0.1141436086188334
  0.9259442809682848  0.8518411993640905  0.1138610354323744
  0.8888927395981466  0.8888680068464625  0.1139187909283300
  0.9259491927444439  0.9629520626509936  0.1135976500303073
  0.5077947804801382  0.3643207144687510  0.4209160507713048
  0.4671139573774308  0.2895301576651356  0.4126634225091194
  0.3989468222995619  0.2720233425367201  0.4171347246693299
  0.3971644589023265  0.3359731476846413  0.4284961886221039
  0.6211803356189503  0.4747527947904845  0.4174693047584913
  0.6960899826950674  0.5151790364077742  0.4212381793700931
  0.6503233839208766  0.5863433138123338  0.4174321822589570
  0.7139959014045115  0.5837787391157607  0.4212120544489554
  0.3564915846158497  0.5098795871159110  0.4319983095022520
  0.3252684358327355  0.3942748268935664  0.4316719445902497
  0.2853163838959642  0.4694033967682616  0.4073766850067859
  0.2666116014273652  0.4001313509681073  0.4071041283280329
  0.5833996515393346  0.6490653044279899  0.4199204197182464
  0.5805104532549331  0.7127030957306043  0.4121902775079791
  0.4728278279886440  0.6190770175894065  0.4275232436593904
  0.5121184326066115  0.6941943067986961  0.4167701336012904
  0.3995309725511706  0.5818516418376165  0.4304221559978136
  0.3338316696162200  0.3362970555075717  0.4307668739475841
  0.5808340184506766  0.4022369941695291  0.4190595945129581
  0.6183429706899339  0.3626604546482216  0.4195857232097729
  0.6605876914781373  0.3671037817731985  0.3519926443833232
  0.6128813705427728  0.3213083287443280  0.4886437863834370
  0.6966080802026055  0.3307657184818827  0.3532866857356357
  0.6494870294806642  0.2855599215629671  0.4903274293220264
  0.6913571797791717  0.2901230798233235  0.4226356200716408
  0.6455609825071953  0.6468059166503936  0.4183117131175542
  0.3633945066317215  0.6230389276707006  0.4259674882053748
  0.7119617127347742  0.7140980577682885  0.4187765554311306
  0.2684773106087751  0.2677010695858492  0.4262888495953012
  0.3272190001016856  0.6230002044884804  0.3541573897798047
  0.7581711710645345  0.7334120428756793  0.3511517672294699
  0.2266670828167750  0.2468853649941234  0.3545215083795110
  0.3649829128308486  0.6620809871827386  0.4956456979862695
  0.7296361542987749  0.7587124083192903  0.4878516591807852
  0.2477497099493871  0.2235144153416835  0.4959563575715725
  0.2923432639803272  0.6605277755210897  0.3525181149868093
  0.8207495613987530  0.7961893284042719  0.3523781458942278
  0.1646874518572792  0.1834445148711764  0.3528995844234273
  0.3303861751137512  0.6998187914597521  0.4939040930455177
  0.7925380857353685  0.8211584491726338  0.4894676866427788
  0.1859862260749389  0.1599747170943165  0.4942232887924874
  0.2936598265476549  0.6988316266969709  0.4224808306019996
  0.8382020624983936  0.8401052055109902  0.4217179076373853
  0.1441052452431611  0.1399493060258905  0.4228292812823051
  0.4643049973341130  0.3912485033811023  0.4298149942916993
  0.3774760618915501  0.4617232119676786  0.4521788875037316
  0.5951569886258798  0.5193512168022386  0.4134694688391524
  0.5175954644186082  0.5933035817300065  0.4281741419817485
  0.4883587783144254  0.2556652398939385  0.4032463211667099
  0.3536208287944742  0.2209668293443024  0.4116534868265576
  0.7301641067324103  0.4937068557784449  0.4248246934556335
  0.7654621389492388  0.6286823434100359  0.4247205982068015
  0.2538731965531390  0.4912595447881598  0.3875746866689956
  0.2176096437429799  0.3569586871286418  0.3870848824499384
  0.6248760187773739  0.7639737290382635  0.4031838290965029
  0.4897007682160618  0.7274135011796034  0.4118454660114743
  0.6645049491560515  0.3988300404627116  0.2982254260395417
  0.5806708682776766  0.3184644656647936  0.5414374807580996
  0.7286945890004554  0.3341579471687260  0.3000904845974121
  0.6455925773477308  0.2544044618978504  0.5448123706819236
  0.3268356326590253  0.5937707616932947  0.2994053699020985
  0.7443985101116782  0.6990567732686426  0.2973695474755574
  0.2430616189787240  0.2804123462050795  0.2997752240503814
  0.3934841382170003  0.6624708672763495  0.5511939383363326
  0.6941346340146357  0.7433879201588238  0.5406900701196347
  0.2804129865462216  0.2395014950199296  0.5515212696997571
  0.2643267422270228  0.6599341468230077  0.2964232723477593
  0.8558240021446958  0.8107830650321334  0.2991539678561895
  0.1326723573593700  0.1679931622276384  0.2968139047307022
  0.3319662755879885  0.7297990006888114  0.5485714041068909
  0.8060533042908645  0.8549082138195575  0.5439427536135144
  0.1705023827649205  0.1262538472829843  0.5488760005280396
  0.2662831838050641  0.7278852410241274  0.4213581258665434
  0.7198729845936186  0.2621977259600622  0.4240311665338166
  0.0956973780321864  0.0905982654457715  0.4217119767282627
  0.8872426686559337  0.8888493413378991  0.4230580547466834
  0.5162391814578019  0.5182001331463035  0.6062819082304042
  0.5081402416931305  0.4943928022301241  0.4620413954569820
  0.4236373860913928  0.4732687794101642  0.5118307272684315
  0.5532378009395740  0.5208384723784532  0.5711062013600045
 
  0.00000000E+00  0.00000000E+00  0.00000000E+00
  0.00000000E+00  0.00000000E+00  0.00000000E+00
  0.00000000E+00  0.00000000E+00  0.00000000E+00
  0.00000000E+00  0.00000000E+00  0.00000000E+00
  0.00000000E+00  0.00000000E+00  0.00000000E+00
  0.00000000E+00  0.00000000E+00  0.00000000E+00
  0.00000000E+00  0.00000000E+00  0.00000000E+00
  0.00000000E+00  0.00000000E+00  0.00000000E+00
  0.00000000E+00  0.00000000E+00  0.00000000E+00
  0.00000000E+00  0.00000000E+00  0.00000000E+00
  0.00000000E+00  0.00000000E+00  0.00000000E+00
  0.00000000E+00  0.00000000E+00  0.00000000E+00
  0.00000000E+00  0.00000000E+00  0.00000000E+00
  0.00000000E+00  0.00000000E+00  0.00000000E+00
  0.00000000E+00  0.00000000E+00  0.00000000E+00
  0.00000000E+00  0.00000000E+00  0.00000000E+00
  0.00000000E+00  0.00000000E+00  0.00000000E+00
  0.00000000E+00  0.00000000E+00  0.00000000E+00
  0.00000000E+00  0.00000000E+00  0.00000000E+00
  0.00000000E+00  0.00000000E+00  0.00000000E+00
  0.00000000E+00  0.00000000E+00  0.00000000E+00
  0.00000000E+00  0.00000000E+00  0.00000000E+00
  0.00000000E+00  0.00000000E+00  0.00000000E+00
  0.00000000E+00  0.00000000E+00  0.00000000E+00
  0.00000000E+00  0.00000000E+00  0.00000000E+00
  0.00000000E+00  0.00000000E+00  0.00000000E+00
  0.00000000E+00  0.00000000E+00  0.00000000E+00
  0.00000000E+00  0.00000000E+00  0.00000000E+00
  0.00000000E+00  0.00000000E+00  0.00000000E+00
  0.00000000E+00  0.00000000E+00  0.00000000E+00
  0.00000000E+00  0.00000000E+00  0.00000000E+00
  0.00000000E+00  0.00000000E+00  0.00000000E+00
  0.00000000E+00  0.00000000E+00  0.00000000E+00
  0.00000000E+00  0.00000000E+00  0.00000000E+00
  0.00000000E+00  0.00000000E+00  0.00000000E+00
  0.00000000E+00  0.00000000E+00  0.00000000E+00
  0.00000000E+00  0.00000000E+00  0.00000000E+00
  0.00000000E+00  0.00000000E+00  0.00000000E+00
  0.00000000E+00  0.00000000E+00  0.00000000E+00
  0.00000000E+00  0.00000000E+00  0.00000000E+00
  0.00000000E+00  0.00000000E+00  0.00000000E+00
  0.00000000E+00  0.00000000E+00  0.00000000E+00
  0.00000000E+00  0.00000000E+00  0.00000000E+00
  0.00000000E+00  0.00000000E+00  0.00000000E+00
  0.00000000E+00  0.00000000E+00  0.00000000E+00
  0.00000000E+00  0.00000000E+00  0.00000000E+00
  0.00000000E+00  0.00000000E+00  0.00000000E+00
  0.00000000E+00  0.00000000E+00  0.00000000E+00
  0.00000000E+00  0.00000000E+00  0.00000000E+00
  0.00000000E+00  0.00000000E+00  0.00000000E+00
  0.00000000E+00  0.00000000E+00  0.00000000E+00
  0.00000000E+00  0.00000000E+00  0.00000000E+00
  0.00000000E+00  0.00000000E+00  0.00000000E+00
  0.00000000E+00  0.00000000E+00  0.00000000E+00
  0.00000000E+00  0.00000000E+00  0.00000000E+00
  0.00000000E+00  0.00000000E+00  0.00000000E+00
  0.00000000E+00  0.00000000E+00  0.00000000E+00
  0.00000000E+00  0.00000000E+00  0.00000000E+00
  0.00000000E+00  0.00000000E+00  0.00000000E+00
  0.00000000E+00  0.00000000E+00  0.00000000E+00
  0.00000000E+00  0.00000000E+00  0.00000000E+00
  0.00000000E+00  0.00000000E+00  0.00000000E+00
  0.00000000E+00  0.00000000E+00  0.00000000E+00
  0.00000000E+00  0.00000000E+00  0.00000000E+00
  0.00000000E+00  0.00000000E+00  0.00000000E+00
  0.00000000E+00  0.00000000E+00  0.00000000E+00
  0.00000000E+00  0.00000000E+00  0.00000000E+00
  0.00000000E+00  0.00000000E+00  0.00000000E+00
  0.00000000E+00  0.00000000E+00  0.00000000E+00
  0.00000000E+00  0.00000000E+00  0.00000000E+00
  0.00000000E+00  0.00000000E+00  0.00000000E+00
  0.00000000E+00  0.00000000E+00  0.00000000E+00
  0.00000000E+00  0.00000000E+00  0.00000000E+00
  0.00000000E+00  0.00000000E+00  0.00000000E+00
  0.00000000E+00  0.00000000E+00  0.00000000E+00
  0.00000000E+00  0.00000000E+00  0.00000000E+00
  0.00000000E+00  0.00000000E+00  0.00000000E+00
  0.00000000E+00  0.00000000E+00  0.00000000E+00
  0.00000000E+00  0.00000000E+00  0.00000000E+00
  0.00000000E+00  0.00000000E+00  0.00000000E+00
  0.00000000E+00  0.00000000E+00  0.00000000E+00
  0.00000000E+00  0.00000000E+00  0.00000000E+00
  0.00000000E+00  0.00000000E+00  0.00000000E+00
  0.00000000E+00  0.00000000E+00  0.00000000E+00
  0.00000000E+00  0.00000000E+00  0.00000000E+00
  0.00000000E+00  0.00000000E+00  0.00000000E+00
  0.00000000E+00  0.00000000E+00  0.00000000E+00
  0.00000000E+00  0.00000000E+00  0.00000000E+00
  0.00000000E+00  0.00000000E+00  0.00000000E+00
  0.00000000E+00  0.00000000E+00  0.00000000E+00
  0.00000000E+00  0.00000000E+00  0.00000000E+00
  0.00000000E+00  0.00000000E+00  0.00000000E+00
  0.00000000E+00  0.00000000E+00  0.00000000E+00
  0.00000000E+00  0.00000000E+00  0.00000000E+00
  0.00000000E+00  0.00000000E+00  0.00000000E+00
  0.00000000E+00  0.00000000E+00  0.00000000E+00
  0.00000000E+00  0.00000000E+00  0.00000000E+00
  0.00000000E+00  0.00000000E+00  0.00000000E+00
  0.00000000E+00  0.00000000E+00  0.00000000E+00
  0.00000000E+00  0.00000000E+00  0.00000000E+00
  0.00000000E+00  0.00000000E+00  0.00000000E+00
  0.00000000E+00  0.00000000E+00  0.00000000E+00
  0.00000000E+00  0.00000000E+00  0.00000000E+00
  0.00000000E+00  0.00000000E+00  0.00000000E+00
  0.00000000E+00  0.00000000E+00  0.00000000E+00
  0.00000000E+00  0.00000000E+00  0.00000000E+00
  0.00000000E+00  0.00000000E+00  0.00000000E+00
  0.00000000E+00  0.00000000E+00  0.00000000E+00
  0.00000000E+00  0.00000000E+00  0.00000000E+00
  0.00000000E+00  0.00000000E+00  0.00000000E+00
  0.00000000E+00  0.00000000E+00  0.00000000E+00
  0.00000000E+00  0.00000000E+00  0.00000000E+00
  0.00000000E+00  0.00000000E+00  0.00000000E+00
  0.00000000E+00  0.00000000E+00  0.00000000E+00
  0.00000000E+00  0.00000000E+00  0.00000000E+00
  0.00000000E+00  0.00000000E+00  0.00000000E+00
  0.00000000E+00  0.00000000E+00  0.00000000E+00
  0.00000000E+00  0.00000000E+00  0.00000000E+00
  0.00000000E+00  0.00000000E+00  0.00000000E+00
  0.00000000E+00  0.00000000E+00  0.00000000E+00
  0.00000000E+00  0.00000000E+00  0.00000000E+00
  0.00000000E+00  0.00000000E+00  0.00000000E+00
  0.00000000E+00  0.00000000E+00  0.00000000E+00
  0.00000000E+00  0.00000000E+00  0.00000000E+00
  0.00000000E+00  0.00000000E+00  0.00000000E+00
  0.00000000E+00  0.00000000E+00  0.00000000E+00
  0.00000000E+00  0.00000000E+00  0.00000000E+00
  0.00000000E+00  0.00000000E+00  0.00000000E+00
  0.00000000E+00  0.00000000E+00  0.00000000E+00
  0.00000000E+00  0.00000000E+00  0.00000000E+00
  0.00000000E+00  0.00000000E+00  0.00000000E+00
  0.00000000E+00  0.00000000E+00  0.00000000E+00
  0.00000000E+00  0.00000000E+00  0.00000000E+00
  0.00000000E+00  0.00000000E+00  0.00000000E+00
  0.00000000E+00  0.00000000E+00  0.00000000E+00
  0.00000000E+00  0.00000000E+00  0.00000000E+00
  0.00000000E+00  0.00000000E+00  0.00000000E+00
  0.00000000E+00  0.00000000E+00  0.00000000E+00
  0.00000000E+00  0.00000000E+00  0.00000000E+00
  0.00000000E+00  0.00000000E+00  0.00000000E+00
  0.00000000E+00  0.00000000E+00  0.00000000E+00
  0.00000000E+00  0.00000000E+00  0.00000000E+00
  0.00000000E+00  0.00000000E+00  0.00000000E+00
  0.00000000E+00  0.00000000E+00  0.00000000E+00
  0.00000000E+00  0.00000000E+00  0.00000000E+00
  0.00000000E+00  0.00000000E+00  0.00000000E+00
  0.00000000E+00  0.00000000E+00  0.00000000E+00
  0.00000000E+00  0.00000000E+00  0.00000000E+00
  0.00000000E+00  0.00000000E+00  0.00000000E+00
  0.00000000E+00  0.00000000E+00  0.00000000E+00
  0.00000000E+00  0.00000000E+00  0.00000000E+00
  0.00000000E+00  0.00000000E+00  0.00000000E+00
  0.00000000E+00  0.00000000E+00  0.00000000E+00
  0.00000000E+00  0.00000000E+00  0.00000000E+00
  0.00000000E+00  0.00000000E+00  0.00000000E+00
  0.00000000E+00  0.00000000E+00  0.00000000E+00
  0.00000000E+00  0.00000000E+00  0.00000000E+00
  0.00000000E+00  0.00000000E+00  0.00000000E+00
  0.00000000E+00  0.00000000E+00  0.00000000E+00
  0.00000000E+00  0.00000000E+00  0.00000000E+00
  0.00000000E+00  0.00000000E+00  0.00000000E+00
  0.00000000E+00  0.00000000E+00  0.00000000E+00
  0.00000000E+00  0.00000000E+00  0.00000000E+00
  0.00000000E+00  0.00000000E+00  0.00000000E+00
  0.00000000E+00  0.00000000E+00  0.00000000E+00
  0.00000000E+00  0.00000000E+00  0.00000000E+00
  0.00000000E+00  0.00000000E+00  0.00000000E+00
  0.00000000E+00  0.00000000E+00  0.00000000E+00
  0.00000000E+00  0.00000000E+00  0.00000000E+00
  0.00000000E+00  0.00000000E+00  0.00000000E+00
  0.00000000E+00  0.00000000E+00  0.00000000E+00
  0.00000000E+00  0.00000000E+00  0.00000000E+00
  0.00000000E+00  0.00000000E+00  0.00000000E+00
  0.00000000E+00  0.00000000E+00  0.00000000E+00
  0.00000000E+00  0.00000000E+00  0.00000000E+00
  0.00000000E+00  0.00000000E+00  0.00000000E+00
  0.00000000E+00  0.00000000E+00  0.00000000E+00
  0.00000000E+00  0.00000000E+00  0.00000000E+00
  0.00000000E+00  0.00000000E+00  0.00000000E+00
  0.00000000E+00  0.00000000E+00  0.00000000E+00
  0.00000000E+00  0.00000000E+00  0.00000000E+00
  0.00000000E+00  0.00000000E+00  0.00000000E+00
  0.00000000E+00  0.00000000E+00  0.00000000E+00
  0.00000000E+00  0.00000000E+00  0.00000000E+00
  0.00000000E+00  0.00000000E+00  0.00000000E+00
  0.00000000E+00  0.00000000E+00  0.00000000E+00
  0.00000000E+00  0.00000000E+00  0.00000000E+00
  0.00000000E+00  0.00000000E+00  0.00000000E+00
  0.00000000E+00  0.00000000E+00  0.00000000E+00
  0.00000000E+00  0.00000000E+00  0.00000000E+00
  0.00000000E+00  0.00000000E+00  0.00000000E+00
  0.00000000E+00  0.00000000E+00  0.00000000E+00
  0.00000000E+00  0.00000000E+00  0.00000000E+00
  0.00000000E+00  0.00000000E+00  0.00000000E+00
  0.00000000E+00  0.00000000E+00  0.00000000E+00
  0.00000000E+00  0.00000000E+00  0.00000000E+00
  0.00000000E+00  0.00000000E+00  0.00000000E+00
  0.00000000E+00  0.00000000E+00  0.00000000E+00
  0.00000000E+00  0.00000000E+00  0.00000000E+00
  0.00000000E+00  0.00000000E+00  0.00000000E+00
  0.00000000E+00  0.00000000E+00  0.00000000E+00
  0.00000000E+00  0.00000000E+00  0.00000000E+00
  0.00000000E+00  0.00000000E+00  0.00000000E+00
  0.00000000E+00  0.00000000E+00  0.00000000E+00
  0.00000000E+00  0.00000000E+00  0.00000000E+00
  0.00000000E+00  0.00000000E+00  0.00000000E+00
  0.00000000E+00  0.00000000E+00  0.00000000E+00
  0.00000000E+00  0.00000000E+00  0.00000000E+00
  0.00000000E+00  0.00000000E+00  0.00000000E+00
  0.00000000E+00  0.00000000E+00  0.00000000E+00
  0.00000000E+00  0.00000000E+00  0.00000000E+00
  0.00000000E+00  0.00000000E+00  0.00000000E+00
  0.00000000E+00  0.00000000E+00  0.00000000E+00
  0.00000000E+00  0.00000000E+00  0.00000000E+00
  0.00000000E+00  0.00000000E+00  0.00000000E+00
  0.00000000E+00  0.00000000E+00  0.00000000E+00
  0.00000000E+00  0.00000000E+00  0.00000000E+00
  0.00000000E+00  0.00000000E+00  0.00000000E+00
  0.00000000E+00  0.00000000E+00  0.00000000E+00
  0.00000000E+00  0.00000000E+00  0.00000000E+00
  0.00000000E+00  0.00000000E+00  0.00000000E+00
  0.00000000E+00  0.00000000E+00  0.00000000E+00
  0.00000000E+00  0.00000000E+00  0.00000000E+00
  0.00000000E+00  0.00000000E+00  0.00000000E+00
  0.00000000E+00  0.00000000E+00  0.00000000E+00
  0.00000000E+00  0.00000000E+00  0.00000000E+00
  0.00000000E+00  0.00000000E+00  0.00000000E+00
  0.00000000E+00  0.00000000E+00  0.00000000E+00
  0.00000000E+00  0.00000000E+00  0.00000000E+00
  0.00000000E+00  0.00000000E+00  0.00000000E+00
  0.00000000E+00  0.00000000E+00  0.00000000E+00
  0.00000000E+00  0.00000000E+00  0.00000000E+00
  0.00000000E+00  0.00000000E+00  0.00000000E+00
  0.00000000E+00  0.00000000E+00  0.00000000E+00
  0.00000000E+00  0.00000000E+00  0.00000000E+00
  0.00000000E+00  0.00000000E+00  0.00000000E+00
  0.00000000E+00  0.00000000E+00  0.00000000E+00
  0.00000000E+00  0.00000000E+00  0.00000000E+00
  0.00000000E+00  0.00000000E+00  0.00000000E+00
  0.00000000E+00  0.00000000E+00  0.00000000E+00
  0.00000000E+00  0.00000000E+00  0.00000000E+00
  0.00000000E+00  0.00000000E+00  0.00000000E+00
