C  N  H  Cu O                           
   1.00000000000000     
    11.1029153023801186  -19.2338042452836575    0.0029768331959390
    11.1028064668630044   19.2337413553495509    0.0039341571825775
     0.0047130301019369    0.0003735853447813   14.2252669409466534
   C    N    H    Cu   O 
   194     8    16     1     1
Direct
  0.9998104565734274  0.9998180502163652  0.1201042314377382
  0.0368824464319923  0.0739183594769593  0.1193579465580194
  0.9998257146679996  0.1109447531863849  0.1188806507859963
  0.0368854229996323  0.1850322960106618  0.1173446119117072
  0.9998397256177387  0.2220642576354010  0.1163765158776125
  0.0368904805690884  0.2961439407713490  0.1144047718832378
  0.9998384725898709  0.3331658199439869  0.1133837209235941
  0.0369080011388249  0.4072517481395743  0.1116961983451800
  0.9998300735046237  0.4442634900508500  0.1115101021957524
  0.0368864275203267  0.5183477421387438  0.1111198514679337
  0.9998162190548409  0.5553699542586091  0.1119055832727703
  0.0368528188986727  0.6294457680037242  0.1128185637140990
  0.9997929443608667  0.6664619677098367  0.1143844085443321
  0.0368347530451834  0.7405415223251599  0.1159257065846094
  0.9997874224848657  0.7775672835967081  0.1176142336230113
  0.0368358551010899  0.8516531435687384  0.1188120235335150
  0.9997978934161900  0.8886911209704736  0.1197417988285319
  0.0368560208868779  0.9627871286784034  0.1200041590299496
  0.1109557198807222  0.9998682743038947  0.1191376023356025
  0.1480185968679143  0.0739536146881931  0.1177352301621899
  0.1109780393370717  0.1109806788838439  0.1179231625258794
  0.1480159973219112  0.1850471078694079  0.1159708446015378
  0.1109747991776819  0.2220743144270867  0.1160184736942677
  0.1480232730461561  0.2961575226612301  0.1141920881932443
  0.1109850005469178  0.3331986690981645  0.1132981767991635
  0.1480321972521499  0.4072603757474538  0.1111862882250358
  0.1110032517897867  0.4442838909601193  0.1105034519156495
  0.1480571353299463  0.5183530421117322  0.1097063370864108
  0.1109853204097778  0.5553590240001570  0.1105365652608509
  0.1480062711172882  0.6294449728909675  0.1115690209497722
  0.1109464514104103  0.6664747259846754  0.1127947778660645
  0.1479697961551703  0.7405527432838001  0.1143330522309282
  0.1109217776245240  0.7775834121577022  0.1158062234664786
  0.1479565100644023  0.8516640088035080  0.1171688760336182
  0.1109255108269543  0.8887099414013725  0.1184536218988754
  0.1479758280569671  0.9628069952158617  0.1186541452615216
  0.2220614770152997  0.9998819161563358  0.1175413096878215
  0.2590783328005488  0.0739591068722930  0.1160330000510280
  0.2220700927796612  0.1109983485208382  0.1157039070397557
  0.2590836239656403  0.1850395180489976  0.1138892542109901
  0.2220651226282894  0.2220776516054482  0.1140067669332821
  0.2590588796887637  0.2961222700641612  0.1133440806387002
  0.2220721549455541  0.3331803823656504  0.1133702182990367
  0.2590749444308999  0.4072343147977079  0.1129675606799329
  0.2221002379407198  0.4442844627504904  0.1113335549135741
  0.2591311910581284  0.5183473536864238  0.1112908912687341
  0.2221188261259092  0.5553692977819875  0.1100818894500292
  0.2591281555552984  0.6294130507123609  0.1114259677592808
  0.2220982406650478  0.6664536178309026  0.1120699461467866
  0.2590922721258876  0.7405298483592010  0.1139748099990298
  0.2220511327660879  0.7775782512858438  0.1147996695765560
  0.2590782083763831  0.8516637206894057  0.1161664606942946
  0.2220423128360626  0.8887142655547297  0.1170104824768620
  0.2590756516751279  0.9628085672450283  0.1173002623909745
  0.3331538828388217  0.9998510042497840  0.1167620328322974
  0.3701674009697615  0.0739452132397182  0.1157866374965157
  0.3331390797339084  0.1110019925656779  0.1149257121679758
  0.3701509821769126  0.1850532539424193  0.1133544598216957
  0.3331102460946290  0.2220604223164661  0.1129062816881092
  0.3701529519614679  0.2961309171348191  0.1131998868718629
  0.3331220130345093  0.3331520963566637  0.1138064139421355
  0.3701450385790668  0.4072062488846670  0.1159003553783034
  0.3331297995213462  0.4442514119730400  0.1152450012384083
  0.3701514394518847  0.5183096310784823  0.1165437172832696
  0.3331386631796960  0.5553394217346168  0.1142077927186520
  0.3701908125175971  0.6293905087930849  0.1150936174152312
  0.3331645237172517  0.6664138998879782  0.1137317184267724
  0.3701840322230254  0.7404821466953309  0.1153331247604484
  0.3331697090476883  0.7775605702522094  0.1152089611608655
  0.3701880866667540  0.8516446549575508  0.1162858775970310
  0.3331581710781090  0.8887023051262579  0.1164940819563700
  0.3701797399980302  0.9627914774724733  0.1167633361114852
  0.4442577929220471  0.9998296972194158  0.1165321020357284
  0.4812745948500799  0.0739172472143067  0.1157293433657047
  0.4442456319769177  0.1109789859586457  0.1151379941712062
  0.4812522456195806  0.1850657414971693  0.1136544303872729
  0.4442162903884901  0.2220985719229729  0.1129679666419725
  0.4812725545727835  0.2961635516095062  0.1125738835359905
  0.4442245526629862  0.3331645459139919  0.1136534177170581
  0.4812452346082397  0.4071713690729922  0.1163734420741702
  0.4441855290432812  0.4441792310688891  0.1182633220486580
  0.4812184583183862  0.5182442148694087  0.1203980967021175
  0.4441942438578484  0.5553071475219672  0.1192601957008305
  0.4812699038537460  0.6293722119399192  0.1186820965153392
  0.4442217396220306  0.6663845284609424  0.1171699951536136
  0.4812910830368255  0.7404548197507113  0.1169075429484658
  0.4442670957187410  0.7775129777392874  0.1166068568974619
  0.4812857940243504  0.8516081152673587  0.1168841229664646
  0.4442643495263943  0.8886756289573607  0.1167891393524853
  0.4812866033858713  0.9627679627403232  0.1167377239327601
  0.5553606900273202  0.9998012117991245  0.1165693849306584
  0.5923818507976317  0.0738907760112816  0.1158194296639834
  0.5553505028661839  0.1109464317684006  0.1151323511796763
  0.5923654544349184  0.1850323760339135  0.1135852927960944
  0.5553416356794338  0.2221015841295946  0.1126869987037096
  0.5923630682989599  0.2961672999286836  0.1111842692289942
  0.5553031570826330  0.3331655570960344  0.1119989417241540
  0.5923619322514140  0.4072074307772016  0.1134653499569499
  0.5553200301740477  0.4441905937841009  0.1164809641597417
  0.5923691969163808  0.5182357697200790  0.1187007390409125
  0.5553431386937133  0.5552822359490136  0.1204558605879003
  0.5923683323061016  0.6293549685377886  0.1191493560838647
  0.5553327634979365  0.6663851908019898  0.1181860221405648
  0.5923846693971652  0.7404334316599354  0.1159143313787879
  0.5553666479565391  0.7774677887577393  0.1162141611076223
  0.5923852306669209  0.8515504878655298  0.1159990884796186
  0.5553680944653766  0.8886346482882682  0.1167478015917633
  0.5923853180938441  0.9627324040891242  0.1166873379809345
  0.6664617929445650  0.9997701232243538  0.1165850817396760
  0.7034976803368649  0.0738725840485814  0.1162821715319513
  0.6664628005847806  0.1109270209100567  0.1155319250299635
  0.7034868647916306  0.1850143244319716  0.1142773622569023
  0.6664464995248296  0.2220667212543861  0.1129910029761038
  0.7034430377060542  0.2961475335163469  0.1113670456775732
  0.6664175144995085  0.3331826329190735  0.1103487815775519
  0.7034476973747469  0.4072350890695137  0.1107089342948879
  0.6664181819971947  0.4442305812695241  0.1128325651039522
  0.7034455757250639  0.5182668771275180  0.1150537218449322
  0.6664276699361203  0.5552776021556066  0.1176231999829605
  0.7034269480424870  0.6293439245353273  0.1180452474302796
  0.6664220953961064  0.6663850012794452  0.1176217075703654
  0.7034186475822889  0.7404269652393541  0.1157165129390338
  0.6664070669196844  0.7774484024774009  0.1146164106055051
  0.7034397468946827  0.8515122507843548  0.1146333396144359
  0.6664506044697875  0.8885878534081014  0.1153864828947424
  0.7034726249474715  0.9626895170571347  0.1164119204712270
  0.7775590584304404  0.9997684783768015  0.1172403729411930
  0.8146081524671681  0.0738670383840635  0.1173844229325272
  0.7775771857736046  0.1109176778196664  0.1164146421816036
  0.8146143591462072  0.1850063281230426  0.1154394766019382
  0.7775695344620058  0.2220413372504708  0.1141734441178156
  0.8145961950025381  0.2961292851724289  0.1129617681243245
  0.7775373380684791  0.3331621751686881  0.1117369701161734
  0.8145643681945673  0.4072438243239797  0.1112781810151840
  0.7774970199477433  0.4442498135259299  0.1110718180431887
  0.8145420860573495  0.5182958464571192  0.1127242492617303
  0.7775012908095101  0.5552973302639884  0.1146927881729381
  0.8145468995839210  0.6293634120887103  0.1165429022518877
  0.7774988497200405  0.6663882703478434  0.1176880094657013
  0.8145404277354296  0.7404805912721999  0.1178506960169319
  0.7774846014927441  0.7774872334579694  0.1166370311257366
  0.8145414354259451  0.8515668097225862  0.1172004092113564
  0.7775025643831328  0.8885965427803975  0.1162102174271058
  0.8145704739629337  0.9626921918042440  0.1176541441127518
  0.8886665876207496  0.9997800263372243  0.1190863856667869
  0.9257268990074656  0.0738803254605587  0.1189644234740510
  0.8886952547921108  0.1109224344921402  0.1178827673853993
  0.9257497760672980  0.1850156525349765  0.1167648210943936
  0.8887040484268133  0.2220487767910294  0.1154428305557800
  0.9257460557741365  0.2961294709371671  0.1139836550058863
  0.8886893786572490  0.3331540864956444  0.1129215230421008
  0.9257293343158126  0.4072307159233192  0.1120026599005428
  0.8886607924402973  0.4442507222446228  0.1117106982405030
  0.9257193031636104  0.5183354839171409  0.1120825465214374
  0.8886350034490972  0.5553364532061689  0.1130657466020758
  0.9257008927422584  0.6294179013528133  0.1146038741214356
  0.8886427543877375  0.6664290234317890  0.1163401175186467
  0.9256925715388222  0.7405102686747717  0.1177225666741830
  0.8886393170680477  0.7775349796167542  0.1185252543934553
  0.9257007652275236  0.8516268734212327  0.1193628477742672
  0.8886372942453521  0.8886466621472148  0.1190611871726249
  0.9257093090293631  0.9627472965953268  0.1197289497591586
  0.2646478263136292  0.1285815783265141  0.3553661385414326
  0.3340200071947030  0.1821252485467398  0.3496106592844805
  0.3470905431252998  0.2503651841151417  0.3432223669844324
  0.2914663085621843  0.2648002993597701  0.3423741301843913
  0.2224195932886671  0.2112260549984958  0.3480376585215260
  0.2096229556828535  0.1429055734278881  0.3546750844314029
  0.3231616346606481  0.3407182225907283  0.3377360074307917
  0.4118113042993117  0.3178297672378304  0.3390171213662259
  0.3187453254531109  0.4446007963912570  0.3447913258025719
  0.3968029907552881  0.5594144814165225  0.3627391342998251
  0.2789566823611902  0.4809425299802079  0.3452810844698735
  0.3278636192519956  0.5527050364958884  0.3551009345103978
  0.3066797842377250  0.6022817572110042  0.3541862640653365
  0.2356043680878421  0.5786656391025703  0.3446426378395782
  0.1867893549309121  0.5071677846157737  0.3369393826895666
  0.2079233594399603  0.4574492542608268  0.3369830920606453
  0.5337226440302880  0.3893878139986159  0.3465299423783857
  0.6095673975637376  0.5049106120021680  0.3632690032910157
  0.6273728572529599  0.3507124692217132  0.3393488025026371
  0.6992936139920097  0.3770429535282339  0.3392801149182875
  0.7463089059501908  0.4489924365669064  0.3465761158662604
  0.7226710473602304  0.4964760467759321  0.3555699471439823
  0.6509126597544630  0.4703006255870787  0.3564663746867008
  0.6036295295972131  0.3980548817358032  0.3472991701712219
  0.6101678106662299  0.6122877001930254  0.3768301596670970
  0.5190635902663484  0.6357798284470279  0.3772925249804745
  0.6392693395841421  0.6864078921023558  0.3573362788420217
  0.7075974881177959  0.7395150694615193  0.3428691601031370
  0.7202083941314176  0.8077333244749118  0.3343220802372646
  0.6652928141796228  0.8219758637216467  0.3346996874027737
  0.5960592189452543  0.7684404060269395  0.3437742042197657
  0.5833536052256534  0.7008877837306853  0.3577436657705014
  0.3941970774427648  0.3689967291229426  0.3352493523042605
  0.2886352251568324  0.3753991810063030  0.3391259326455615
  0.3887726533678647  0.4932817415706352  0.3542417485429605
  0.4759183659475346  0.3272010206319251  0.3413909321118277
  0.5397035653043237  0.4544245405047943  0.3549864178761373
  0.6402986046888719  0.5742743195687948  0.3689516808912562
  0.5411061802242291  0.5889486918899428  0.4023078389195887
  0.4542381398206890  0.6219894490022845  0.3692373944379872
  0.2528971104116291  0.0747813541782049  0.3603289793266411
  0.3767957225510384  0.1713650153237120  0.3499849933400265
  0.1801778751770656  0.2227765274986143  0.3471668092090241
  0.1562040261345607  0.0999839958599260  0.3589742488540258
  0.3448129418048871  0.6574404421375476  0.3600326779335933
  0.2175527079047651  0.6161526974761918  0.3421762539385437
  0.1318593075970997  0.4906454165079333  0.3292022705746881
  0.1706206455611451  0.4021988269693776  0.3295388972680229
  0.5908015683924579  0.2952756282057588  0.3319232814144910
  0.7195022180650955  0.3415619152621713  0.3316343702145273
  0.8020160950299010  0.4678858039958044  0.3441339681174065
  0.7585910046208162  0.5522226894625030  0.3609109487390423
  0.7498002497538095  0.7279704007214601  0.3400911072750245
  0.7733877581327331  0.8502904698511592  0.3257285638426093
  0.6766810321455008  0.8754439501819061  0.3267002873178673
  0.5531584986064473  0.7789543156690552  0.3419517547894667
  0.4573357116215548  0.4635428102506622  0.3629022408089381
  0.5045366641836831  0.5343522259137142  0.4570909521816192
 
  0.00000000E+00  0.00000000E+00  0.00000000E+00
  0.00000000E+00  0.00000000E+00  0.00000000E+00
  0.00000000E+00  0.00000000E+00  0.00000000E+00
  0.00000000E+00  0.00000000E+00  0.00000000E+00
  0.00000000E+00  0.00000000E+00  0.00000000E+00
  0.00000000E+00  0.00000000E+00  0.00000000E+00
  0.00000000E+00  0.00000000E+00  0.00000000E+00
  0.00000000E+00  0.00000000E+00  0.00000000E+00
  0.00000000E+00  0.00000000E+00  0.00000000E+00
  0.00000000E+00  0.00000000E+00  0.00000000E+00
  0.00000000E+00  0.00000000E+00  0.00000000E+00
  0.00000000E+00  0.00000000E+00  0.00000000E+00
  0.00000000E+00  0.00000000E+00  0.00000000E+00
  0.00000000E+00  0.00000000E+00  0.00000000E+00
  0.00000000E+00  0.00000000E+00  0.00000000E+00
  0.00000000E+00  0.00000000E+00  0.00000000E+00
  0.00000000E+00  0.00000000E+00  0.00000000E+00
  0.00000000E+00  0.00000000E+00  0.00000000E+00
  0.00000000E+00  0.00000000E+00  0.00000000E+00
  0.00000000E+00  0.00000000E+00  0.00000000E+00
  0.00000000E+00  0.00000000E+00  0.00000000E+00
  0.00000000E+00  0.00000000E+00  0.00000000E+00
  0.00000000E+00  0.00000000E+00  0.00000000E+00
  0.00000000E+00  0.00000000E+00  0.00000000E+00
  0.00000000E+00  0.00000000E+00  0.00000000E+00
  0.00000000E+00  0.00000000E+00  0.00000000E+00
  0.00000000E+00  0.00000000E+00  0.00000000E+00
  0.00000000E+00  0.00000000E+00  0.00000000E+00
  0.00000000E+00  0.00000000E+00  0.00000000E+00
  0.00000000E+00  0.00000000E+00  0.00000000E+00
  0.00000000E+00  0.00000000E+00  0.00000000E+00
  0.00000000E+00  0.00000000E+00  0.00000000E+00
  0.00000000E+00  0.00000000E+00  0.00000000E+00
  0.00000000E+00  0.00000000E+00  0.00000000E+00
  0.00000000E+00  0.00000000E+00  0.00000000E+00
  0.00000000E+00  0.00000000E+00  0.00000000E+00
  0.00000000E+00  0.00000000E+00  0.00000000E+00
  0.00000000E+00  0.00000000E+00  0.00000000E+00
  0.00000000E+00  0.00000000E+00  0.00000000E+00
  0.00000000E+00  0.00000000E+00  0.00000000E+00
  0.00000000E+00  0.00000000E+00  0.00000000E+00
  0.00000000E+00  0.00000000E+00  0.00000000E+00
  0.00000000E+00  0.00000000E+00  0.00000000E+00
  0.00000000E+00  0.00000000E+00  0.00000000E+00
  0.00000000E+00  0.00000000E+00  0.00000000E+00
  0.00000000E+00  0.00000000E+00  0.00000000E+00
  0.00000000E+00  0.00000000E+00  0.00000000E+00
  0.00000000E+00  0.00000000E+00  0.00000000E+00
  0.00000000E+00  0.00000000E+00  0.00000000E+00
  0.00000000E+00  0.00000000E+00  0.00000000E+00
  0.00000000E+00  0.00000000E+00  0.00000000E+00
  0.00000000E+00  0.00000000E+00  0.00000000E+00
  0.00000000E+00  0.00000000E+00  0.00000000E+00
  0.00000000E+00  0.00000000E+00  0.00000000E+00
  0.00000000E+00  0.00000000E+00  0.00000000E+00
  0.00000000E+00  0.00000000E+00  0.00000000E+00
  0.00000000E+00  0.00000000E+00  0.00000000E+00
  0.00000000E+00  0.00000000E+00  0.00000000E+00
  0.00000000E+00  0.00000000E+00  0.00000000E+00
  0.00000000E+00  0.00000000E+00  0.00000000E+00
  0.00000000E+00  0.00000000E+00  0.00000000E+00
  0.00000000E+00  0.00000000E+00  0.00000000E+00
  0.00000000E+00  0.00000000E+00  0.00000000E+00
  0.00000000E+00  0.00000000E+00  0.00000000E+00
  0.00000000E+00  0.00000000E+00  0.00000000E+00
  0.00000000E+00  0.00000000E+00  0.00000000E+00
  0.00000000E+00  0.00000000E+00  0.00000000E+00
  0.00000000E+00  0.00000000E+00  0.00000000E+00
  0.00000000E+00  0.00000000E+00  0.00000000E+00
  0.00000000E+00  0.00000000E+00  0.00000000E+00
  0.00000000E+00  0.00000000E+00  0.00000000E+00
  0.00000000E+00  0.00000000E+00  0.00000000E+00
  0.00000000E+00  0.00000000E+00  0.00000000E+00
  0.00000000E+00  0.00000000E+00  0.00000000E+00
  0.00000000E+00  0.00000000E+00  0.00000000E+00
  0.00000000E+00  0.00000000E+00  0.00000000E+00
  0.00000000E+00  0.00000000E+00  0.00000000E+00
  0.00000000E+00  0.00000000E+00  0.00000000E+00
  0.00000000E+00  0.00000000E+00  0.00000000E+00
  0.00000000E+00  0.00000000E+00  0.00000000E+00
  0.00000000E+00  0.00000000E+00  0.00000000E+00
  0.00000000E+00  0.00000000E+00  0.00000000E+00
  0.00000000E+00  0.00000000E+00  0.00000000E+00
  0.00000000E+00  0.00000000E+00  0.00000000E+00
  0.00000000E+00  0.00000000E+00  0.00000000E+00
  0.00000000E+00  0.00000000E+00  0.00000000E+00
  0.00000000E+00  0.00000000E+00  0.00000000E+00
  0.00000000E+00  0.00000000E+00  0.00000000E+00
  0.00000000E+00  0.00000000E+00  0.00000000E+00
  0.00000000E+00  0.00000000E+00  0.00000000E+00
  0.00000000E+00  0.00000000E+00  0.00000000E+00
  0.00000000E+00  0.00000000E+00  0.00000000E+00
  0.00000000E+00  0.00000000E+00  0.00000000E+00
  0.00000000E+00  0.00000000E+00  0.00000000E+00
  0.00000000E+00  0.00000000E+00  0.00000000E+00
  0.00000000E+00  0.00000000E+00  0.00000000E+00
  0.00000000E+00  0.00000000E+00  0.00000000E+00
  0.00000000E+00  0.00000000E+00  0.00000000E+00
  0.00000000E+00  0.00000000E+00  0.00000000E+00
  0.00000000E+00  0.00000000E+00  0.00000000E+00
  0.00000000E+00  0.00000000E+00  0.00000000E+00
  0.00000000E+00  0.00000000E+00  0.00000000E+00
  0.00000000E+00  0.00000000E+00  0.00000000E+00
  0.00000000E+00  0.00000000E+00  0.00000000E+00
  0.00000000E+00  0.00000000E+00  0.00000000E+00
  0.00000000E+00  0.00000000E+00  0.00000000E+00
  0.00000000E+00  0.00000000E+00  0.00000000E+00
  0.00000000E+00  0.00000000E+00  0.00000000E+00
  0.00000000E+00  0.00000000E+00  0.00000000E+00
  0.00000000E+00  0.00000000E+00  0.00000000E+00
  0.00000000E+00  0.00000000E+00  0.00000000E+00
  0.00000000E+00  0.00000000E+00  0.00000000E+00
  0.00000000E+00  0.00000000E+00  0.00000000E+00
  0.00000000E+00  0.00000000E+00  0.00000000E+00
  0.00000000E+00  0.00000000E+00  0.00000000E+00
  0.00000000E+00  0.00000000E+00  0.00000000E+00
  0.00000000E+00  0.00000000E+00  0.00000000E+00
  0.00000000E+00  0.00000000E+00  0.00000000E+00
  0.00000000E+00  0.00000000E+00  0.00000000E+00
  0.00000000E+00  0.00000000E+00  0.00000000E+00
  0.00000000E+00  0.00000000E+00  0.00000000E+00
  0.00000000E+00  0.00000000E+00  0.00000000E+00
  0.00000000E+00  0.00000000E+00  0.00000000E+00
  0.00000000E+00  0.00000000E+00  0.00000000E+00
  0.00000000E+00  0.00000000E+00  0.00000000E+00
  0.00000000E+00  0.00000000E+00  0.00000000E+00
  0.00000000E+00  0.00000000E+00  0.00000000E+00
  0.00000000E+00  0.00000000E+00  0.00000000E+00
  0.00000000E+00  0.00000000E+00  0.00000000E+00
  0.00000000E+00  0.00000000E+00  0.00000000E+00
  0.00000000E+00  0.00000000E+00  0.00000000E+00
  0.00000000E+00  0.00000000E+00  0.00000000E+00
  0.00000000E+00  0.00000000E+00  0.00000000E+00
  0.00000000E+00  0.00000000E+00  0.00000000E+00
  0.00000000E+00  0.00000000E+00  0.00000000E+00
  0.00000000E+00  0.00000000E+00  0.00000000E+00
  0.00000000E+00  0.00000000E+00  0.00000000E+00
  0.00000000E+00  0.00000000E+00  0.00000000E+00
  0.00000000E+00  0.00000000E+00  0.00000000E+00
  0.00000000E+00  0.00000000E+00  0.00000000E+00
  0.00000000E+00  0.00000000E+00  0.00000000E+00
  0.00000000E+00  0.00000000E+00  0.00000000E+00
  0.00000000E+00  0.00000000E+00  0.00000000E+00
  0.00000000E+00  0.00000000E+00  0.00000000E+00
  0.00000000E+00  0.00000000E+00  0.00000000E+00
  0.00000000E+00  0.00000000E+00  0.00000000E+00
  0.00000000E+00  0.00000000E+00  0.00000000E+00
  0.00000000E+00  0.00000000E+00  0.00000000E+00
  0.00000000E+00  0.00000000E+00  0.00000000E+00
  0.00000000E+00  0.00000000E+00  0.00000000E+00
  0.00000000E+00  0.00000000E+00  0.00000000E+00
  0.00000000E+00  0.00000000E+00  0.00000000E+00
  0.00000000E+00  0.00000000E+00  0.00000000E+00
  0.00000000E+00  0.00000000E+00  0.00000000E+00
  0.00000000E+00  0.00000000E+00  0.00000000E+00
  0.00000000E+00  0.00000000E+00  0.00000000E+00
  0.00000000E+00  0.00000000E+00  0.00000000E+00
  0.00000000E+00  0.00000000E+00  0.00000000E+00
  0.00000000E+00  0.00000000E+00  0.00000000E+00
  0.00000000E+00  0.00000000E+00  0.00000000E+00
  0.00000000E+00  0.00000000E+00  0.00000000E+00
  0.00000000E+00  0.00000000E+00  0.00000000E+00
  0.00000000E+00  0.00000000E+00  0.00000000E+00
  0.00000000E+00  0.00000000E+00  0.00000000E+00
  0.00000000E+00  0.00000000E+00  0.00000000E+00
  0.00000000E+00  0.00000000E+00  0.00000000E+00
  0.00000000E+00  0.00000000E+00  0.00000000E+00
  0.00000000E+00  0.00000000E+00  0.00000000E+00
  0.00000000E+00  0.00000000E+00  0.00000000E+00
  0.00000000E+00  0.00000000E+00  0.00000000E+00
  0.00000000E+00  0.00000000E+00  0.00000000E+00
  0.00000000E+00  0.00000000E+00  0.00000000E+00
  0.00000000E+00  0.00000000E+00  0.00000000E+00
  0.00000000E+00  0.00000000E+00  0.00000000E+00
  0.00000000E+00  0.00000000E+00  0.00000000E+00
  0.00000000E+00  0.00000000E+00  0.00000000E+00
  0.00000000E+00  0.00000000E+00  0.00000000E+00
  0.00000000E+00  0.00000000E+00  0.00000000E+00
  0.00000000E+00  0.00000000E+00  0.00000000E+00
  0.00000000E+00  0.00000000E+00  0.00000000E+00
  0.00000000E+00  0.00000000E+00  0.00000000E+00
  0.00000000E+00  0.00000000E+00  0.00000000E+00
  0.00000000E+00  0.00000000E+00  0.00000000E+00
  0.00000000E+00  0.00000000E+00  0.00000000E+00
  0.00000000E+00  0.00000000E+00  0.00000000E+00
  0.00000000E+00  0.00000000E+00  0.00000000E+00
  0.00000000E+00  0.00000000E+00  0.00000000E+00
  0.00000000E+00  0.00000000E+00  0.00000000E+00
  0.00000000E+00  0.00000000E+00  0.00000000E+00
  0.00000000E+00  0.00000000E+00  0.00000000E+00
  0.00000000E+00  0.00000000E+00  0.00000000E+00
  0.00000000E+00  0.00000000E+00  0.00000000E+00
  0.00000000E+00  0.00000000E+00  0.00000000E+00
  0.00000000E+00  0.00000000E+00  0.00000000E+00
  0.00000000E+00  0.00000000E+00  0.00000000E+00
  0.00000000E+00  0.00000000E+00  0.00000000E+00
  0.00000000E+00  0.00000000E+00  0.00000000E+00
  0.00000000E+00  0.00000000E+00  0.00000000E+00
  0.00000000E+00  0.00000000E+00  0.00000000E+00
  0.00000000E+00  0.00000000E+00  0.00000000E+00
  0.00000000E+00  0.00000000E+00  0.00000000E+00
  0.00000000E+00  0.00000000E+00  0.00000000E+00
  0.00000000E+00  0.00000000E+00  0.00000000E+00
  0.00000000E+00  0.00000000E+00  0.00000000E+00
  0.00000000E+00  0.00000000E+00  0.00000000E+00
  0.00000000E+00  0.00000000E+00  0.00000000E+00
  0.00000000E+00  0.00000000E+00  0.00000000E+00
  0.00000000E+00  0.00000000E+00  0.00000000E+00
  0.00000000E+00  0.00000000E+00  0.00000000E+00
  0.00000000E+00  0.00000000E+00  0.00000000E+00
  0.00000000E+00  0.00000000E+00  0.00000000E+00
  0.00000000E+00  0.00000000E+00  0.00000000E+00
  0.00000000E+00  0.00000000E+00  0.00000000E+00
  0.00000000E+00  0.00000000E+00  0.00000000E+00
  0.00000000E+00  0.00000000E+00  0.00000000E+00
  0.00000000E+00  0.00000000E+00  0.00000000E+00
  0.00000000E+00  0.00000000E+00  0.00000000E+00
  0.00000000E+00  0.00000000E+00  0.00000000E+00
  0.00000000E+00  0.00000000E+00  0.00000000E+00
  0.00000000E+00  0.00000000E+00  0.00000000E+00
