C  N  H  Cu O                           
   1.00000000000000     
    11.1535200114466004  -19.3193486123013223    0.0000000000000000
    11.1535200114466004   19.3193486123013223    0.0000000000000000
     0.0000000000000000    0.0000000000000000   16.0000000000000000
   C    N    H    Cu   O 
   206     4    29     1     3
Direct
  0.0000328064077539  0.9999926798914307  0.1137177201410308
  0.0370833416978133  0.0740770014158107  0.1136740394576104
  0.0000381168038225  0.1111105257392377  0.1134887312433384
  0.0370846637422588  0.1851913383501154  0.1135575749172878
  0.0000430331921064  0.2222259982511751  0.1132485537094487
  0.0370849352623059  0.2963010374651642  0.1133975358178446
  0.0000435573106464  0.3333358295236720  0.1130698441325926
  0.0370823504846821  0.4074097338695672  0.1132099724408828
  0.0000400662619529  0.4444442289303291  0.1130012975396815
  0.0370738758311937  0.5185172257354566  0.1130783632294970
  0.0000323497299039  0.5555520790885085  0.1130526632279713
  0.0370692343279312  0.6296251741328309  0.1130561888570091
  0.0000263164224720  0.6666596366394442  0.1132197621200760
  0.0370681285248278  0.7407340567514779  0.1131707911945151
  0.0000267361294827  0.7777686478161654  0.1134890274408180
  0.0370732630108927  0.8518479596622289  0.1134247269338732
  0.0000366807738362  0.8888851052384459  0.1137158838575390
  0.0370813071321530  0.9629646886603935  0.1136549256561272
  0.1111612498749303  0.0000098538342614  0.1136131868498179
  0.1482086941689878  0.0740886592999724  0.1139094598543670
  0.1111676686001059  0.1111184574618293  0.1138529704360257
  0.1482165690944142  0.1852009339847595  0.1141178625378010
  0.1111682403684034  0.2222307717926823  0.1140411666527915
  0.1482094105898690  0.2963097348315355  0.1145181496579784
  0.1111622945339757  0.3333385190382227  0.1141057557042947
  0.1482072758068733  0.4074147135009490  0.1143952731905438
  0.1111609233813699  0.4444448878780128  0.1138116481911572
  0.1481987367283190  0.5185192758905459  0.1139329276043659
  0.1111527444259942  0.5555514800692632  0.1134288114812227
  0.1481894493624001  0.6296252459860191  0.1134530952283852
  0.1111473913059149  0.6666628632664668  0.1131389738474347
  0.1481890604790564  0.7407398726821931  0.1131065014023120
  0.1111469203981248  0.7777760753098208  0.1130116389333191
  0.1481898380333202  0.8518533678931555  0.1130411015041494
  0.1111526445140867  0.8888928217440664  0.1131975457771644
  0.1481958856584112  0.9629708393125678  0.1133944499782713
  0.2222723789221782  0.0000157266811143  0.1134987874752450
  0.2593112886328517  0.0740927144078433  0.1140362471477034
  0.2222795874217396  0.1111334384453606  0.1142811421323374
  0.2593191642756364  0.1852030460950620  0.1149146758130205
  0.2222888733989685  0.2222319608347009  0.1147997080996285
  0.2593277199965253  0.2963073320430492  0.1155218491300635
  0.2222879356227211  0.3333471147265709  0.1153446339840948
  0.2593289486613503  0.4074211189060908  0.1158537586328947
  0.2222821971076664  0.4444437332275075  0.1152757288977136
  0.2593219133111538  0.5185187082938422  0.1153436204816630
  0.2222787911220531  0.5555526239708037  0.1145685975449277
  0.2593280521294091  0.6296295221006344  0.1143447339323995
  0.2222744915037586  0.6666624583324606  0.1138303827392216
  0.2593148754234599  0.7407421801637086  0.1137420922488464
  0.2222671516319727  0.7777784895776197  0.1133239683583225
  0.2593051919017957  0.8518548936718880  0.1132250390298807
  0.2222663940658494  0.8888945515526508  0.1130971449686272
  0.2593054339251767  0.9629734317361806  0.1132901075868221
  0.3333808884089842  0.0000118406836221  0.1134452340519090
  0.3704171515276751  0.0740899424789563  0.1139282883862165
  0.3333850296649254  0.1111334983673525  0.1143566665170920
  0.3704225443574139  0.1852066391203169  0.1151941058398894
  0.3333894191185876  0.2222421934598276  0.1155750815268223
  0.3704322701985507  0.2963077810046762  0.1164044113142136
  0.3334026103703939  0.3333466575965411  0.1164331004201659
  0.3704347346136486  0.4074184322483035  0.1170259953358477
  0.3333965272201727  0.4444507828885478  0.1166776979303414
  0.3704382664758775  0.5185218105497222  0.1167700103570028
  0.3334017135194385  0.5555593471131649  0.1159701165928182
  0.3704379783103767  0.6296359121258649  0.1156211849631670
  0.3333999636116808  0.6666661690121694  0.1147967781280503
  0.3704217965219659  0.7407282138325278  0.1145479245907805
  0.3333891199130450  0.7777676507913458  0.1140024892035909
  0.3704167522585596  0.8518459464101669  0.1136883813607309
  0.3333811016491326  0.8888877615280559  0.1133642556779842
  0.3704148194664754  0.9629673370655422  0.1133503631117304
  0.4444881832636620  0.0000040428887773  0.1134151922246366
  0.4815222642396342  0.0740840835068793  0.1136662931398403
  0.4444922031112873  0.1111294789488820  0.1140994183761987
  0.4815275454488321  0.1852067149080464  0.1148002624756069
  0.4444944964170153  0.2222460388536981  0.1154871795781683
  0.4815268622473549  0.2963099079216331  0.1162988442805167
  0.4444999455578561  0.3333461442229931  0.1168433686664712
  0.4815305467392829  0.4074119907467795  0.1173978207786416
  0.4445051547997220  0.4444534129149694  0.1175166178862498
  0.4815389018831446  0.5185212408115835  0.1176215204593111
  0.4445080205977724  0.5555594301189060  0.1172329450137449
  0.4815344478923028  0.6296267890537780  0.1168621768375477
  0.4445027066010466  0.6666600891171867  0.1160873905122290
  0.4815263755063770  0.7407252613141182  0.1154975939200296
  0.4444910368428325  0.7777591798357322  0.1147625506062395
  0.4815193104067985  0.8518333842742873  0.1141698951311169
  0.4444883128518700  0.8888790387689952  0.1137154017090363
  0.4815197452540237  0.9629574710260623  0.1134353626222429
  0.5555935611314960  0.9999944742031973  0.1133629842680323
  0.5926254169346823  0.0740738830217282  0.1133317271517189
  0.5555952787931477  0.1111212610333889  0.1136453492585081
  0.5926250702491905  0.1851972319598542  0.1140333573729850
  0.5555988108427274  0.2222411920456003  0.1147322333259107
  0.5926286496541485  0.2963092895112042  0.1152532145089305
  0.5555965232913480  0.3333404900741001  0.1161847842930944
  0.5926204071442622  0.4074088981219589  0.1166705921471007
  0.5555944917503082  0.4444508691317564  0.1173466553592962
  0.5926256632169152  0.5185141273475063  0.1174513493268244
  0.5556023182814089  0.5555552694056263  0.1176042547430866
  0.5926229224046483  0.6296188276489697  0.1172132538120781
  0.5555994252222447  0.6666565333854452  0.1168606288819274
  0.5926276024917554  0.7407189206052249  0.1160825016362967
  0.5555957796341051  0.7777552038741864  0.1154534396956561
  0.5926246353285574  0.8518263754749396  0.1146058075204893
  0.5555923553753546  0.8888699686734883  0.1140613813910561
  0.5926249872816315  0.9629484978427084  0.1135221965493765
  0.6666995178077852  0.9999862404592441  0.1133459483218499
  0.7037336901618801  0.0740644981384155  0.1130702215695576
  0.6666978574094288  0.1111070618481020  0.1131918935016415
  0.7037294765596240  0.1851859650164654  0.1132940325947983
  0.6666936261201938  0.2222262955092541  0.1137528435652100
  0.7037193704506298  0.2962960681882984  0.1139368374777218
  0.6666865950036398  0.3333317470356428  0.1147021563047613
  0.7037240983590659  0.4073998295652856  0.1150755746398931
  0.6666900436462763  0.4444454356199872  0.1160752675137908
  0.7037259327602965  0.5185206653981888  0.1162372810867750
  0.6666858639570291  0.5555419954329327  0.1169081801726606
  0.7037183666393753  0.6296147460912458  0.1165495223463606
  0.6666918703262896  0.6666601812126352  0.1166760170876911
  0.7037271358435491  0.7407247238118859  0.1158920044811007
  0.6666936163365021  0.7777554083362550  0.1156751312191178
  0.7037291506323122  0.8518243481653480  0.1148136821276316
  0.6666986945960011  0.8888663101699982  0.1143393884272854
  0.7037325926560105  0.9629423354316098  0.1136347552850859
  0.7778063997528883  0.9999822345195577  0.1134280504641348
  0.8148450425986630  0.0740605360391155  0.1130301564593742
  0.7778099120022247  0.1111013648927840  0.1129156938750819
  0.8148485292089507  0.1851786662192528  0.1128389605629982
  0.7778074531470778  0.2222171711811084  0.1130595877711587
  0.8148461117315696  0.2962931323092571  0.1131584390650214
  0.7777973713110853  0.3333294797386355  0.1135983112063182
  0.8148424081727854  0.4074102182034863  0.1137894020459191
  0.7778003324254510  0.4444434134544000  0.1145077428405067
  0.8148360597319502  0.5185194960377049  0.1145809157719139
  0.7777933316391822  0.5555489738964281  0.1153779410973321
  0.8148334967794169  0.6296187974415725  0.1151793364149342
  0.7777904388485370  0.6666509480433644  0.1156907885165854
  0.8148225946427262  0.7407312534708081  0.1151168463714580
  0.7777887779599824  0.7777624618841317  0.1151662350307056
  0.8148258956101400  0.8518262076204772  0.1145742135080633
  0.7777991285299417  0.8888645531502789  0.1143972321438256
  0.8148367311574848  0.9629383106941000  0.1137666521132603
  0.8889139648660380  0.9999870833348550  0.1136072671148069
  0.9259570900500959  0.0740657809911566  0.1133120433729218
  0.8889224725524690  0.1111053418473492  0.1130265674565521
  0.9259644511535507  0.1851823068596616  0.1129287877226138
  0.8889255246288355  0.2222201410541652  0.1127966399667873
  0.9259652829428889  0.2962961579728683  0.1128365725232511
  0.8889255802673401  0.3333335548580130  0.1129377369093411
  0.9259621851175822  0.4074087864564535  0.1129907562862372
  0.8889219983193889  0.4444453499407768  0.1133192717159791
  0.9259537886492260  0.5185172439421981  0.1133142156183854
  0.8889099360170017  0.5555494078190536  0.1138200685762204
  0.9259495729551518  0.6296226145659913  0.1137189493636351
  0.8889058828992696  0.6666527693107486  0.1142949051281054
  0.9259495683381447  0.7407277708313508  0.1140801387306988
  0.8889042389581289  0.7777611763512714  0.1144623008644904
  0.9259491285532134  0.8518426432769455  0.1141375305632506
  0.8888974100843043  0.8888697618507246  0.1141891094099069
  0.9259514131948269  0.9629531057810100  0.1138369504828463
  0.5087851104244812  0.3659426290911090  0.4227033316170024
  0.4675663023187246  0.2913524584579626  0.4147230584858048
  0.3995818158974757  0.2743512686669857  0.4200728908121141
  0.3978806800972879  0.3381986662664137  0.4320421088373745
  0.6222600978927699  0.4755721114076590  0.4129250394267061
  0.6972939653142942  0.5155236665300882  0.4181188347429960
  0.6521070504826700  0.5869628946077576  0.4125675035333608
  0.7156866661907650  0.5841696814403616  0.4178863366262293
  0.3539521822966216  0.5088054060849750  0.4311337349285924
  0.3231096768984135  0.3938989535840453  0.4313325393804932
  0.2830195470364338  0.4686139312043610  0.4044332071995956
  0.2644284080113793  0.3993580339022647  0.4045464743520620
  0.5844781593064320  0.6482188829641938  0.4218940960922433
  0.5799827791184196  0.7105583676874693  0.4136138821264418
  0.4724510426395144  0.6163173691373965  0.4312696087219619
  0.5113110413863486  0.6909916985419959  0.4189830572302117
  0.3990278431554345  0.5805851539910475  0.4317212325719684
  0.3337149494409306  0.3370441148148878  0.4323104182028188
  0.5817114978247355  0.4031424721483955  0.4174196358855585
  0.6187104392309278  0.3631170630625709  0.4181267108293840
  0.6611943241573546  0.3673655468144562  0.3508671930661992
  0.6127854327912449  0.3215708624934679  0.4872369061323726
  0.6969648160850824  0.3307785219549585  0.3525543251831609
  0.6490962735508496  0.2855382684236000  0.4892994987085209
  0.6912222311358717  0.2899877116230529  0.4219453062694721
  0.6471566160869695  0.6472457845240955  0.4167268804893886
  0.3643752479540128  0.6231813689284859  0.4264197464112788
  0.7130435874038630  0.7148130532809004  0.4172241845407418
  0.2691198808203958  0.2678480196603713  0.4270273042627665
  0.3286935305295765  0.6233311167451102  0.3542077174694730
  0.7596495221682303  0.7343028720047236  0.3499694003907561
  0.2278942950556562  0.2471412597423778  0.3547651295775355
  0.3655347538780758  0.6621536605692472  0.4959772643868743
  0.7302369689853760  0.7595086371875867  0.4862021719517837
  0.2478863672019873  0.2234237885887665  0.4964971955557672
  0.2938594490799519  0.6608921699899608  0.3520459040159507
  0.8220878827330965  0.7972077100034786  0.3515270058249473
  0.1659762235380230  0.1836732106875931  0.3524728594727399
  0.3310157693596136  0.6999575301235206  0.4937008607279811
  0.7930037291261193  0.8220502061473131  0.4881853588655279
  0.1862123118064171  0.1598296051169823  0.4940906230877383
  0.2947193547159752  0.6990773294562024  0.4218990387801682
  0.8390532931211150  0.8410986778018951  0.4208227158830332
  0.1448671388549625  0.1399839640340405  0.4222411220051800
  0.4658556078985477  0.3934292139849422  0.4331133535088894
  0.3740323373423909  0.4608622226736963  0.4518523676091434
  0.5967555298933928  0.5204347444172785  0.4079576150706088
  0.5190032496599544  0.5917557711417629  0.4324415347107751
  0.4883066608342277  0.2572519162920100  0.4038627567836409
  0.3540851865770853  0.2235359089200716  0.4140265736867613
  0.7308644099628694  0.4935920131986632  0.4238518341390765
  0.7671260979414354  0.6288965264923979  0.4233974162447161
  0.2517059861251228  0.4904223492677600  0.3838526220591998
  0.2156353000719411  0.3560913778651619  0.3840833588799185
  0.6236296910530699  0.7618770566647631  0.4025858523914873
  0.4881352369319132  0.7234105716130361  0.4128050640644428
  0.6654746155996422  0.3991084642771863  0.2969783915948254
  0.5804521414476771  0.3188814340226959  0.5398206326817012
  0.7291939477346441  0.3340387084994192  0.2995789510135572
  0.6448197901723964  0.2542669985028574  0.5438255868899750
  0.3285404194195516  0.5941197061241891  0.2995665700079528
  0.7462649897786072  0.7000158414212888  0.2961825022030145
  0.2446464178803236  0.2808290810240300  0.3001686707972547
  0.3935276269841394  0.6623025188503838  0.5519091924802551
  0.6944570012886175  0.7441224223217513  0.5387733397545070
  0.2800813982716550  0.2393277814432623  0.5524641326434512
  0.2661740003936128  0.6603483749016533  0.2956577299487687
  0.8574088266303096  0.8119414074101939  0.2985456013479094
  0.1344085078860620  0.1683879638417450  0.2960198492071288
  0.3322198827461261  0.7298363148498640  0.5482939032498184
  0.8061357753479701  0.8557580652124518  0.5426497941449301
  0.1703274397387343  0.1259376499495174  0.5486061613710530
  0.2672992957979837  0.7280853614649947  0.4203963566182488
  0.7195198234814508  0.2618458394495142  0.4236158051077786
  0.0964675118665140  0.0906403650100974  0.4206219335092681
  0.8879995248957538  0.8899242667861329  0.4224158599762748
  0.5248858093479245  0.4640393271828695  0.6803013500516595
  0.5057936594898186  0.4962081413731842  0.4486664735212481
  0.4232689731109839  0.4740984604747855  0.5078430642782715
  0.5539818878443068  0.5204184091202664  0.5846245251231994
  0.5456524571502085  0.4620455472493916  0.6268252896685111
 
  0.00000000E+00  0.00000000E+00  0.00000000E+00
  0.00000000E+00  0.00000000E+00  0.00000000E+00
  0.00000000E+00  0.00000000E+00  0.00000000E+00
  0.00000000E+00  0.00000000E+00  0.00000000E+00
  0.00000000E+00  0.00000000E+00  0.00000000E+00
  0.00000000E+00  0.00000000E+00  0.00000000E+00
  0.00000000E+00  0.00000000E+00  0.00000000E+00
  0.00000000E+00  0.00000000E+00  0.00000000E+00
  0.00000000E+00  0.00000000E+00  0.00000000E+00
  0.00000000E+00  0.00000000E+00  0.00000000E+00
  0.00000000E+00  0.00000000E+00  0.00000000E+00
  0.00000000E+00  0.00000000E+00  0.00000000E+00
  0.00000000E+00  0.00000000E+00  0.00000000E+00
  0.00000000E+00  0.00000000E+00  0.00000000E+00
  0.00000000E+00  0.00000000E+00  0.00000000E+00
  0.00000000E+00  0.00000000E+00  0.00000000E+00
  0.00000000E+00  0.00000000E+00  0.00000000E+00
  0.00000000E+00  0.00000000E+00  0.00000000E+00
  0.00000000E+00  0.00000000E+00  0.00000000E+00
  0.00000000E+00  0.00000000E+00  0.00000000E+00
  0.00000000E+00  0.00000000E+00  0.00000000E+00
  0.00000000E+00  0.00000000E+00  0.00000000E+00
  0.00000000E+00  0.00000000E+00  0.00000000E+00
  0.00000000E+00  0.00000000E+00  0.00000000E+00
  0.00000000E+00  0.00000000E+00  0.00000000E+00
  0.00000000E+00  0.00000000E+00  0.00000000E+00
  0.00000000E+00  0.00000000E+00  0.00000000E+00
  0.00000000E+00  0.00000000E+00  0.00000000E+00
  0.00000000E+00  0.00000000E+00  0.00000000E+00
  0.00000000E+00  0.00000000E+00  0.00000000E+00
  0.00000000E+00  0.00000000E+00  0.00000000E+00
  0.00000000E+00  0.00000000E+00  0.00000000E+00
  0.00000000E+00  0.00000000E+00  0.00000000E+00
  0.00000000E+00  0.00000000E+00  0.00000000E+00
  0.00000000E+00  0.00000000E+00  0.00000000E+00
  0.00000000E+00  0.00000000E+00  0.00000000E+00
  0.00000000E+00  0.00000000E+00  0.00000000E+00
  0.00000000E+00  0.00000000E+00  0.00000000E+00
  0.00000000E+00  0.00000000E+00  0.00000000E+00
  0.00000000E+00  0.00000000E+00  0.00000000E+00
  0.00000000E+00  0.00000000E+00  0.00000000E+00
  0.00000000E+00  0.00000000E+00  0.00000000E+00
  0.00000000E+00  0.00000000E+00  0.00000000E+00
  0.00000000E+00  0.00000000E+00  0.00000000E+00
  0.00000000E+00  0.00000000E+00  0.00000000E+00
  0.00000000E+00  0.00000000E+00  0.00000000E+00
  0.00000000E+00  0.00000000E+00  0.00000000E+00
  0.00000000E+00  0.00000000E+00  0.00000000E+00
  0.00000000E+00  0.00000000E+00  0.00000000E+00
  0.00000000E+00  0.00000000E+00  0.00000000E+00
  0.00000000E+00  0.00000000E+00  0.00000000E+00
  0.00000000E+00  0.00000000E+00  0.00000000E+00
  0.00000000E+00  0.00000000E+00  0.00000000E+00
  0.00000000E+00  0.00000000E+00  0.00000000E+00
  0.00000000E+00  0.00000000E+00  0.00000000E+00
  0.00000000E+00  0.00000000E+00  0.00000000E+00
  0.00000000E+00  0.00000000E+00  0.00000000E+00
  0.00000000E+00  0.00000000E+00  0.00000000E+00
  0.00000000E+00  0.00000000E+00  0.00000000E+00
  0.00000000E+00  0.00000000E+00  0.00000000E+00
  0.00000000E+00  0.00000000E+00  0.00000000E+00
  0.00000000E+00  0.00000000E+00  0.00000000E+00
  0.00000000E+00  0.00000000E+00  0.00000000E+00
  0.00000000E+00  0.00000000E+00  0.00000000E+00
  0.00000000E+00  0.00000000E+00  0.00000000E+00
  0.00000000E+00  0.00000000E+00  0.00000000E+00
  0.00000000E+00  0.00000000E+00  0.00000000E+00
  0.00000000E+00  0.00000000E+00  0.00000000E+00
  0.00000000E+00  0.00000000E+00  0.00000000E+00
  0.00000000E+00  0.00000000E+00  0.00000000E+00
  0.00000000E+00  0.00000000E+00  0.00000000E+00
  0.00000000E+00  0.00000000E+00  0.00000000E+00
  0.00000000E+00  0.00000000E+00  0.00000000E+00
  0.00000000E+00  0.00000000E+00  0.00000000E+00
  0.00000000E+00  0.00000000E+00  0.00000000E+00
  0.00000000E+00  0.00000000E+00  0.00000000E+00
  0.00000000E+00  0.00000000E+00  0.00000000E+00
  0.00000000E+00  0.00000000E+00  0.00000000E+00
  0.00000000E+00  0.00000000E+00  0.00000000E+00
  0.00000000E+00  0.00000000E+00  0.00000000E+00
  0.00000000E+00  0.00000000E+00  0.00000000E+00
  0.00000000E+00  0.00000000E+00  0.00000000E+00
  0.00000000E+00  0.00000000E+00  0.00000000E+00
  0.00000000E+00  0.00000000E+00  0.00000000E+00
  0.00000000E+00  0.00000000E+00  0.00000000E+00
  0.00000000E+00  0.00000000E+00  0.00000000E+00
  0.00000000E+00  0.00000000E+00  0.00000000E+00
  0.00000000E+00  0.00000000E+00  0.00000000E+00
  0.00000000E+00  0.00000000E+00  0.00000000E+00
  0.00000000E+00  0.00000000E+00  0.00000000E+00
  0.00000000E+00  0.00000000E+00  0.00000000E+00
  0.00000000E+00  0.00000000E+00  0.00000000E+00
  0.00000000E+00  0.00000000E+00  0.00000000E+00
  0.00000000E+00  0.00000000E+00  0.00000000E+00
  0.00000000E+00  0.00000000E+00  0.00000000E+00
  0.00000000E+00  0.00000000E+00  0.00000000E+00
  0.00000000E+00  0.00000000E+00  0.00000000E+00
  0.00000000E+00  0.00000000E+00  0.00000000E+00
  0.00000000E+00  0.00000000E+00  0.00000000E+00
  0.00000000E+00  0.00000000E+00  0.00000000E+00
  0.00000000E+00  0.00000000E+00  0.00000000E+00
  0.00000000E+00  0.00000000E+00  0.00000000E+00
  0.00000000E+00  0.00000000E+00  0.00000000E+00
  0.00000000E+00  0.00000000E+00  0.00000000E+00
  0.00000000E+00  0.00000000E+00  0.00000000E+00
  0.00000000E+00  0.00000000E+00  0.00000000E+00
  0.00000000E+00  0.00000000E+00  0.00000000E+00
  0.00000000E+00  0.00000000E+00  0.00000000E+00
  0.00000000E+00  0.00000000E+00  0.00000000E+00
  0.00000000E+00  0.00000000E+00  0.00000000E+00
  0.00000000E+00  0.00000000E+00  0.00000000E+00
  0.00000000E+00  0.00000000E+00  0.00000000E+00
  0.00000000E+00  0.00000000E+00  0.00000000E+00
  0.00000000E+00  0.00000000E+00  0.00000000E+00
  0.00000000E+00  0.00000000E+00  0.00000000E+00
  0.00000000E+00  0.00000000E+00  0.00000000E+00
  0.00000000E+00  0.00000000E+00  0.00000000E+00
  0.00000000E+00  0.00000000E+00  0.00000000E+00
  0.00000000E+00  0.00000000E+00  0.00000000E+00
  0.00000000E+00  0.00000000E+00  0.00000000E+00
  0.00000000E+00  0.00000000E+00  0.00000000E+00
  0.00000000E+00  0.00000000E+00  0.00000000E+00
  0.00000000E+00  0.00000000E+00  0.00000000E+00
  0.00000000E+00  0.00000000E+00  0.00000000E+00
  0.00000000E+00  0.00000000E+00  0.00000000E+00
  0.00000000E+00  0.00000000E+00  0.00000000E+00
  0.00000000E+00  0.00000000E+00  0.00000000E+00
  0.00000000E+00  0.00000000E+00  0.00000000E+00
  0.00000000E+00  0.00000000E+00  0.00000000E+00
  0.00000000E+00  0.00000000E+00  0.00000000E+00
  0.00000000E+00  0.00000000E+00  0.00000000E+00
  0.00000000E+00  0.00000000E+00  0.00000000E+00
  0.00000000E+00  0.00000000E+00  0.00000000E+00
  0.00000000E+00  0.00000000E+00  0.00000000E+00
  0.00000000E+00  0.00000000E+00  0.00000000E+00
  0.00000000E+00  0.00000000E+00  0.00000000E+00
  0.00000000E+00  0.00000000E+00  0.00000000E+00
  0.00000000E+00  0.00000000E+00  0.00000000E+00
  0.00000000E+00  0.00000000E+00  0.00000000E+00
  0.00000000E+00  0.00000000E+00  0.00000000E+00
  0.00000000E+00  0.00000000E+00  0.00000000E+00
  0.00000000E+00  0.00000000E+00  0.00000000E+00
  0.00000000E+00  0.00000000E+00  0.00000000E+00
  0.00000000E+00  0.00000000E+00  0.00000000E+00
  0.00000000E+00  0.00000000E+00  0.00000000E+00
  0.00000000E+00  0.00000000E+00  0.00000000E+00
  0.00000000E+00  0.00000000E+00  0.00000000E+00
  0.00000000E+00  0.00000000E+00  0.00000000E+00
  0.00000000E+00  0.00000000E+00  0.00000000E+00
  0.00000000E+00  0.00000000E+00  0.00000000E+00
  0.00000000E+00  0.00000000E+00  0.00000000E+00
  0.00000000E+00  0.00000000E+00  0.00000000E+00
  0.00000000E+00  0.00000000E+00  0.00000000E+00
  0.00000000E+00  0.00000000E+00  0.00000000E+00
  0.00000000E+00  0.00000000E+00  0.00000000E+00
  0.00000000E+00  0.00000000E+00  0.00000000E+00
  0.00000000E+00  0.00000000E+00  0.00000000E+00
  0.00000000E+00  0.00000000E+00  0.00000000E+00
  0.00000000E+00  0.00000000E+00  0.00000000E+00
  0.00000000E+00  0.00000000E+00  0.00000000E+00
  0.00000000E+00  0.00000000E+00  0.00000000E+00
  0.00000000E+00  0.00000000E+00  0.00000000E+00
  0.00000000E+00  0.00000000E+00  0.00000000E+00
  0.00000000E+00  0.00000000E+00  0.00000000E+00
  0.00000000E+00  0.00000000E+00  0.00000000E+00
  0.00000000E+00  0.00000000E+00  0.00000000E+00
  0.00000000E+00  0.00000000E+00  0.00000000E+00
  0.00000000E+00  0.00000000E+00  0.00000000E+00
  0.00000000E+00  0.00000000E+00  0.00000000E+00
  0.00000000E+00  0.00000000E+00  0.00000000E+00
  0.00000000E+00  0.00000000E+00  0.00000000E+00
  0.00000000E+00  0.00000000E+00  0.00000000E+00
  0.00000000E+00  0.00000000E+00  0.00000000E+00
  0.00000000E+00  0.00000000E+00  0.00000000E+00
  0.00000000E+00  0.00000000E+00  0.00000000E+00
  0.00000000E+00  0.00000000E+00  0.00000000E+00
  0.00000000E+00  0.00000000E+00  0.00000000E+00
  0.00000000E+00  0.00000000E+00  0.00000000E+00
  0.00000000E+00  0.00000000E+00  0.00000000E+00
  0.00000000E+00  0.00000000E+00  0.00000000E+00
  0.00000000E+00  0.00000000E+00  0.00000000E+00
  0.00000000E+00  0.00000000E+00  0.00000000E+00
  0.00000000E+00  0.00000000E+00  0.00000000E+00
  0.00000000E+00  0.00000000E+00  0.00000000E+00
  0.00000000E+00  0.00000000E+00  0.00000000E+00
  0.00000000E+00  0.00000000E+00  0.00000000E+00
  0.00000000E+00  0.00000000E+00  0.00000000E+00
  0.00000000E+00  0.00000000E+00  0.00000000E+00
  0.00000000E+00  0.00000000E+00  0.00000000E+00
  0.00000000E+00  0.00000000E+00  0.00000000E+00
  0.00000000E+00  0.00000000E+00  0.00000000E+00
  0.00000000E+00  0.00000000E+00  0.00000000E+00
  0.00000000E+00  0.00000000E+00  0.00000000E+00
  0.00000000E+00  0.00000000E+00  0.00000000E+00
  0.00000000E+00  0.00000000E+00  0.00000000E+00
  0.00000000E+00  0.00000000E+00  0.00000000E+00
  0.00000000E+00  0.00000000E+00  0.00000000E+00
  0.00000000E+00  0.00000000E+00  0.00000000E+00
  0.00000000E+00  0.00000000E+00  0.00000000E+00
  0.00000000E+00  0.00000000E+00  0.00000000E+00
  0.00000000E+00  0.00000000E+00  0.00000000E+00
  0.00000000E+00  0.00000000E+00  0.00000000E+00
  0.00000000E+00  0.00000000E+00  0.00000000E+00
  0.00000000E+00  0.00000000E+00  0.00000000E+00
  0.00000000E+00  0.00000000E+00  0.00000000E+00
  0.00000000E+00  0.00000000E+00  0.00000000E+00
  0.00000000E+00  0.00000000E+00  0.00000000E+00
  0.00000000E+00  0.00000000E+00  0.00000000E+00
  0.00000000E+00  0.00000000E+00  0.00000000E+00
  0.00000000E+00  0.00000000E+00  0.00000000E+00
  0.00000000E+00  0.00000000E+00  0.00000000E+00
  0.00000000E+00  0.00000000E+00  0.00000000E+00
  0.00000000E+00  0.00000000E+00  0.00000000E+00
  0.00000000E+00  0.00000000E+00  0.00000000E+00
  0.00000000E+00  0.00000000E+00  0.00000000E+00
  0.00000000E+00  0.00000000E+00  0.00000000E+00
  0.00000000E+00  0.00000000E+00  0.00000000E+00
  0.00000000E+00  0.00000000E+00  0.00000000E+00
  0.00000000E+00  0.00000000E+00  0.00000000E+00
  0.00000000E+00  0.00000000E+00  0.00000000E+00
  0.00000000E+00  0.00000000E+00  0.00000000E+00
  0.00000000E+00  0.00000000E+00  0.00000000E+00
  0.00000000E+00  0.00000000E+00  0.00000000E+00
  0.00000000E+00  0.00000000E+00  0.00000000E+00
  0.00000000E+00  0.00000000E+00  0.00000000E+00
  0.00000000E+00  0.00000000E+00  0.00000000E+00
  0.00000000E+00  0.00000000E+00  0.00000000E+00
  0.00000000E+00  0.00000000E+00  0.00000000E+00
  0.00000000E+00  0.00000000E+00  0.00000000E+00
  0.00000000E+00  0.00000000E+00  0.00000000E+00
  0.00000000E+00  0.00000000E+00  0.00000000E+00
  0.00000000E+00  0.00000000E+00  0.00000000E+00
  0.00000000E+00  0.00000000E+00  0.00000000E+00
  0.00000000E+00  0.00000000E+00  0.00000000E+00
  0.00000000E+00  0.00000000E+00  0.00000000E+00
  0.00000000E+00  0.00000000E+00  0.00000000E+00
  0.00000000E+00  0.00000000E+00  0.00000000E+00
  0.00000000E+00  0.00000000E+00  0.00000000E+00
  0.00000000E+00  0.00000000E+00  0.00000000E+00
  0.00000000E+00  0.00000000E+00  0.00000000E+00
  0.00000000E+00  0.00000000E+00  0.00000000E+00
  0.00000000E+00  0.00000000E+00  0.00000000E+00
  0.00000000E+00  0.00000000E+00  0.00000000E+00
