C  N  H  Cu O                           
   1.00000000000000     
    11.1535200114466004  -19.3193486123013223    0.0000000000000000
    11.1535200114466004   19.3193486123013223    0.0000000000000000
     0.0000000000000000    0.0000000000000000   16.0000000000000000
   C    N    H    Cu   O 
   206     4    28     1     2
Direct
  0.0000285800331355  0.9999951997230314  0.1127297494727735
  0.0370816596306932  0.0740800629776842  0.1126749999884561
  0.0000348371447567  0.1111124624013397  0.1126057444369743
  0.0370825590108790  0.1851934525315793  0.1126167441779991
  0.0000392281445587  0.2222276468772739  0.1125045129366683
  0.0370820708148940  0.2963032992897358  0.1125292364138633
  0.0000388153043440  0.3333372861046228  0.1123877107302353
  0.0370782691456790  0.4074119280945272  0.1124175332516103
  0.0000343153782269  0.4444456047709227  0.1123327622531448
  0.0370689789267203  0.5185191599495202  0.1123942753441708
  0.0000261204684948  0.5555532656894511  0.1124063102872815
  0.0370639506742027  0.6296271084792450  0.1124922262440225
  0.0000199950333762  0.6666608925230689  0.1125802293716555
  0.0370626425486066  0.7407359569615177  0.1126351086620324
  0.0000201765213688  0.7777702028023707  0.1127583319512010
  0.0370676111761062  0.8518496806279063  0.1127365602052100
  0.0000298524817168  0.8888866155171207  0.1128115278461681
  0.0370768095079749  0.9629669426858841  0.1127388832592900
  0.1111574403630731  0.0000139474699732  0.1127765808198933
  0.1482064316663772  0.0740930811624725  0.1128952433261722
  0.1111659072412193  0.1111230384932671  0.1127576751489555
  0.1482165224427526  0.1852040412692877  0.1128545437354952
  0.1111675248708468  0.2222328461319614  0.1128167257780053
  0.1482104329669827  0.2963126499294136  0.1130799038166721
  0.1111614562481200  0.3333405771976816  0.1128526093692461
  0.1482068715469200  0.4074170645827206  0.1129954227805105
  0.1111583036977155  0.4444464355922625  0.1126989943092513
  0.1481968597997992  0.5185215684798964  0.1127981658080140
  0.1111489659032688  0.5555529553652572  0.1125927664068082
  0.1481868108145477  0.6296279256990357  0.1127053003485848
  0.1111426975787035  0.6666647168408184  0.1126101233294249
  0.1481844864556033  0.7407419450318268  0.1127009420516368
  0.1111418351426655  0.7777780800700006  0.1126533839992559
  0.1481850388404775  0.8518558198352989  0.1127161069325464
  0.1111477687790688  0.8888954914496273  0.1127081385473709
  0.1481919065490563  0.9629741793194847  0.1127883524701312
  0.2222687046142399  0.0000200239231546  0.1129323902706376
  0.2593085538182111  0.0740981118160458  0.1131788369233308
  0.2222779046457013  0.1111396255002289  0.1131868694647602
  0.2593200374138929  0.1852100591109858  0.1134981646896189
  0.2222889862560654  0.2222378970293404  0.1132994955998577
  0.2593309692619275  0.2963123979580849  0.1137168675637665
  0.2222902250917554  0.3333496793720693  0.1135652489768708
  0.2593330180140043  0.4074246668873024  0.1138708339384330
  0.2222840328638481  0.4444465129748743  0.1135043540226865
  0.2593239645446163  0.5185217621196242  0.1135648363293787
  0.2222785322063643  0.5555552422993968  0.1131453202915119
  0.2593258741085033  0.6296321222265252  0.1130789268654499
  0.2222720624817730  0.6666644516910242  0.1129183112502770
  0.2593109651348598  0.7407436904398031  0.1130110475357082
  0.2222633323972677  0.7777800942505847  0.1128726624559932
  0.2593006785907261  0.8518572192544852  0.1128969459107762
  0.2222621344135553  0.8888974096899658  0.1128211272992774
  0.2593010780616912  0.9629765963321830  0.1129181814814889
  0.3333768759485446  0.0000161742853579  0.1130258847506400
  0.3704126229990016  0.0740951734266364  0.1132330519192302
  0.3333825150117330  0.1111411342706896  0.1134019998401700
  0.3704202658739891  0.1852153845158431  0.1138207212549283
  0.3333896908266329  0.2222521388725308  0.1139619034145864
  0.3704331143558596  0.2963172224606967  0.1144197431044053
  0.3334052576765015  0.3333540758269097  0.1143507094183043
  0.3704387556057361  0.4074233155489289  0.1147019419528979
  0.3334016884231942  0.4444541893651413  0.1144250863074775
  0.3704409454120581  0.5185233135810919  0.1144992147355730
  0.3334033582951528  0.5555598232658009  0.1139728848810628
  0.3704357814862667  0.6296347591472706  0.1138195601023400
  0.3333973751541431  0.6666655496724021  0.1133659394338902
  0.3704180620427052  0.7407282901607193  0.1133729333140777
  0.3333852781025566  0.7777686159445040  0.1131714183480702
  0.3704118236125005  0.8518471464341739  0.1131045371695753
  0.3333768200653058  0.8888904919591771  0.1129864669292493
  0.3704097856932990  0.9629704418082691  0.1129961789381426
  0.4444835752952296  0.0000078165267516  0.1130126294869127
  0.4815161971999464  0.0740882747463737  0.1130922878878654
  0.4444873117912692  0.1111357585309416  0.1132943751541739
  0.4815206155782421  0.1852141178013096  0.1135945507040713
  0.4444901564817877  0.2222558580739936  0.1139681283932927
  0.4815199820267503  0.2963191662723885  0.1143802434468481
  0.4444967777385799  0.3333560872773694  0.1146969483046156
  0.4815239631549593  0.4074172911609528  0.1150026621529629
  0.4445036428206287  0.4444571639660465  0.1150495125253541
  0.4815327601877756  0.5185187531133071  0.1151236542773968
  0.4445069971200199  0.5555566448922348  0.1148589089468168
  0.4815294874835962  0.6296209135339945  0.1146883239165946
  0.4444998732667907  0.6666557082017890  0.1142052302545475
  0.4815215233192087  0.7407210585852452  0.1139605725664018
  0.4444871015101854  0.7777573778707633  0.1135657531629504
  0.4815141385891968  0.8518331760130659  0.1133394041796176
  0.4444839833144651  0.8888806377580253  0.1131337848630763
  0.4815142760119827  0.9629598855699859  0.1130220832639700
  0.5555883744174929  0.9999970802961112  0.1129873502115057
  0.5926189973315911  0.0740768704891891  0.1129269684747548
  0.5555893470997337  0.1111253807911187  0.1130362123005336
  0.5926172692825797  0.1852021051749735  0.1131288576687737
  0.5555908788975041  0.2222473151989689  0.1134699921680366
  0.5926175678244993  0.2963152375607452  0.1136489477355214
  0.5555856669942169  0.3333471115336488  0.1142279892215085
  0.5926070943306370  0.4074131079698308  0.1144798650372397
  0.5555820489067980  0.4444526893362133  0.1149423138294761
  0.5926108154166327  0.5185121662868860  0.1150086214479442
  0.5555900788057753  0.5555513524705630  0.1151392063477395
  0.5926104945148286  0.6296115091966963  0.1149341034791059
  0.5555908136357399  0.6666501116058083  0.1147491349676076
  0.5926182564937528  0.7407119499457570  0.1143383229959906
  0.5555894694460172  0.7777507273882442  0.1140043687007556
  0.5926178213301367  0.8518236051651267  0.1135923892588152
  0.5555873451178166  0.8888700342479380  0.1133249113990989
  0.5926190390972665  0.9629497018163237  0.1130777154183588
  0.6666939518351235  0.9999880381779771  0.1129800099322770
  0.7037276050830977  0.0740668142523661  0.1128091318776855
  0.6666919486614762  0.1111100447442329  0.1128345937977332
  0.7037223809552600  0.1851891316256043  0.1127778096460724
  0.6666860835715988  0.2222300813854001  0.1129146515207163
  0.7037108157956524  0.2963002385727910  0.1128606892647738
  0.6666761619060243  0.3333354703602129  0.1132279173534564
  0.7037113931851160  0.4074032444988797  0.1134037688946962
  0.6666749024089241  0.4444460111672952  0.1140429501645116
  0.7037105725077416  0.5185194538920956  0.1141545522218724
  0.6666695955280538  0.5555399082722413  0.1146340992287397
  0.7037041507763042  0.6296112780232074  0.1144387523786407
  0.6666774446406399  0.6666539104007068  0.1145779267444161
  0.7037151839776107  0.7407189652342299  0.1141184346160578
  0.6666833757644313  0.7777504858786474  0.1140831181950756
  0.7037206751486179  0.8518208450985770  0.1136241191803126
  0.6666917451943219  0.8888650055783224  0.1134419776159604
  0.7037260808650838  0.9629426177745121  0.1130866319538519
  0.7778004729471029  0.9999834486323829  0.1128982330839601
  0.8148394019622913  0.0740623071804799  0.1126729990252074
  0.7778041630569535  0.1111036719830803  0.1126666719511581
  0.8148423787126430  0.1851812290055268  0.1125486989882694
  0.7778007623864701  0.2222198152613017  0.1126202717577966
  0.8148386730919739  0.2962962152898249  0.1125568995961353
  0.7777888983165934  0.3333320949304518  0.1126874225156180
  0.8148329928782448  0.4074123826692260  0.1127363452233653
  0.7777883430449910  0.4444443957498582  0.1130894583418729
  0.8148250270496858  0.5185199943511538  0.1131401461399033
  0.7777795385899386  0.5555480147116851  0.1136193831742153
  0.8148213951898973  0.6296182912152232  0.1135471711164680
  0.7777766939940021  0.6666487343958508  0.1138884782236015
  0.8148125809529828  0.7407287847337838  0.1135585717595166
  0.7777782289386848  0.7777594120711255  0.1136191374293427
  0.8148183168124729  0.8518248156180287  0.1133012719365191
  0.7777912774542972  0.8888632040616250  0.1133076918180661
  0.8148306403313118  0.9629385543338620  0.1129709309370520
  0.8889082821889390  0.9999879229455488  0.1127756329909479
  0.9259526994753052  0.0740672655942295  0.1126042054663366
  0.8889173483919208  0.1111069513953317  0.1125487427185266
  0.9259597547046414  0.1851843823289291  0.1124520050459366
  0.8889199524336231  0.2222220780347010  0.1124290344889142
  0.9259597406912619  0.2962983703525445  0.1123609531736881
  0.8889187422854656  0.3333352793762008  0.1123994596317275
  0.9259556761387894  0.4074109163926746  0.1123545730463980
  0.8889136632958164  0.4444464345309501  0.1124993592059391
  0.9259468974910428  0.5185189630191060  0.1124965484019303
  0.8889010929471207  0.5555501402348129  0.1127549533890441
  0.9259418689131373  0.6296237174448150  0.1127576784054666
  0.8888960862819080  0.6666529928999227  0.1130737022424842
  0.9259412531095994  0.7407285745742166  0.1130067687981037
  0.8888948403321405  0.7777610054201709  0.1132024516645564
  0.9259418904550233  0.8518425425197919  0.1130182245197252
  0.8888907932428016  0.8888699230210472  0.1130412225870883
  0.9259463540287316  0.9629535804047615  0.1128347480522093
  0.5082336860803748  0.3649584467495857  0.4216172297856740
  0.4676059226742587  0.2900641944398438  0.4135092573018294
  0.3993962911465186  0.2724708012489930  0.4183492098494836
  0.3976100273729563  0.3364606630653265  0.4297966088469949
  0.6220966484545873  0.4753283081497150  0.4186110754595723
  0.6970077218693126  0.5154110615204046  0.4229782662923016
  0.6521392220737700  0.5872743795557659  0.4182778461648891
  0.7154696508370084  0.5841982701244091  0.4227710987582863
  0.3559920969439091  0.5096541329127831  0.4335364161785103
  0.3250146081651596  0.3942117027818342  0.4338130514226068
  0.2844035579187997  0.4690316949509070  0.4104812600881430
  0.2658124879804280  0.3997750592010854  0.4106427936543290
  0.5844614137181235  0.6490658904390213  0.4208453591603461
  0.5807992141090117  0.7120613636285196  0.4124445141667855
  0.4732027051026625  0.6181899583721665  0.4290891511857741
  0.5122531099786640  0.6930645452026294  0.4173261434059978
  0.3998124123448185  0.5815246595879929  0.4320541144317014
  0.3340667694445755  0.3364840998732248  0.4326223097925100
  0.5813426243567168  0.4027675560100969  0.4197958233333200
  0.6187715885485777  0.3630164774113360  0.4205006877955047
  0.6610437657766645  0.3671504020204098  0.3530618677483601
  0.6133403809439797  0.3218967844385798  0.4898374746646914
  0.6970189038325560  0.3307447102479666  0.3547555688462970
  0.6499185530296155  0.2861154804746180  0.4919272282111253
  0.6917586899256192  0.2903500730259692  0.4243673916753715
  0.6470320812587126  0.6475591851170982  0.4191101939069651
  0.3640997495756089  0.6231419985570370  0.4276987585040462
  0.7132406698783410  0.7150536165101109  0.4196952862622440
  0.2687898279921458  0.2678207652590310  0.4282663694877530
  0.3271168493971242  0.6222571249326510  0.3562780275094238
  0.7596988950660499  0.7346264277269043  0.3522898985260208
  0.2266480154365849  0.2475608160490678  0.3568053511162154
  0.3660502319565356  0.6626287401858865  0.4971123721021464
  0.7307208969190393  0.7594362450210220  0.4890003421280256
  0.2482200095113366  0.2232401975607322  0.4975754405640273
  0.2917945395628745  0.6593424472719644  0.3546982032032142
  0.8222756543179273  0.7974260933377544  0.3539657570780778
  0.1644723209152762  0.1843252899379939  0.3550734268584485
  0.3309867080337683  0.6999255942102733  0.4954213099821448
  0.7936488414537803  0.8218482783394000  0.4911011415211137
  0.1862415712238827  0.1598913359930044  0.4957268161778123
  0.2934449940008144  0.6980615050871570  0.4243965124820086
  0.8395251079615935  0.8410578267448069  0.4235555145154068
  0.1440166238857007  0.1404497903815878  0.4246634769707534
  0.4646921556661619  0.3918167586149151  0.4304967379028181
  0.3771608902410679  0.4617701520642627  0.4533304802384690
  0.5966633350181643  0.5204699674977764  0.4143320819579194
  0.5186663826115300  0.5929535322741554  0.4299434923703194
  0.4888032208968729  0.2562187039232018  0.4039400355123173
  0.3541425214452755  0.2214051531263002  0.4131296860810659
  0.7307909448794229  0.4936187050786747  0.4272147370644779
  0.7670839286422538  0.6288505810296252  0.4268089175625348
  0.2523490228439704  0.4905719677240167  0.3919547404090713
  0.2163326018834919  0.3563784430931405  0.3922727184580502
  0.6248602201195187  0.7633718290539192  0.4026646740221311
  0.4894707451552071  0.7259102757253556  0.4119545662700868
  0.6651091301803985  0.3987005196379065  0.2990379774821834
  0.5811871477445056  0.3192635291556272  0.5425913459323177
  0.7291264275001216  0.3339174710707408  0.3016685716038229
  0.6460409109560422  0.2552003233963293  0.5466553628641274
  0.3263361285683748  0.5925455115147734  0.3018203739814987
  0.7461956271279158  0.7004990159157342  0.2983079092784996
  0.2429331713317873  0.2814788951266458  0.3024064601435167
  0.3949950033171460  0.6635762072105066  0.5524848834100451
  0.6950944160086412  0.7439541245909775  0.5417272684616510
  0.2810643482992930  0.2387821920460210  0.5529756163219068
  0.2630885247656570  0.6579956672896009  0.2989109317710958
  0.8575438668773679  0.8122475269792212  0.3009037825061543
  0.1321758006020629  0.1693748205506199  0.2992333187904049
  0.3327471797706397  0.7301819461204151  0.5498867819280346
  0.8070159141567448  0.8553161275135470  0.5458179920567207
  0.1708123729414883  0.1258646040062203  0.5500982412583774
  0.2656408302414708  0.7266992800092557  0.4234004189497689
  0.7202418144563494  0.2623912429992175  0.4260848652355006
  0.0954153517759489  0.0912834794441673  0.4235299557423862
  0.8885810210915738  0.8897766104757392  0.4252734533479766
  0.5088736316370107  0.4970516154609416  0.4607260703743210
  0.4240194000185353  0.4743993995892256  0.5122648354915816
  0.5489962413813048  0.5078449726290641  0.5707253718601895
 
  0.00000000E+00  0.00000000E+00  0.00000000E+00
  0.00000000E+00  0.00000000E+00  0.00000000E+00
  0.00000000E+00  0.00000000E+00  0.00000000E+00
  0.00000000E+00  0.00000000E+00  0.00000000E+00
  0.00000000E+00  0.00000000E+00  0.00000000E+00
  0.00000000E+00  0.00000000E+00  0.00000000E+00
  0.00000000E+00  0.00000000E+00  0.00000000E+00
  0.00000000E+00  0.00000000E+00  0.00000000E+00
  0.00000000E+00  0.00000000E+00  0.00000000E+00
  0.00000000E+00  0.00000000E+00  0.00000000E+00
  0.00000000E+00  0.00000000E+00  0.00000000E+00
  0.00000000E+00  0.00000000E+00  0.00000000E+00
  0.00000000E+00  0.00000000E+00  0.00000000E+00
  0.00000000E+00  0.00000000E+00  0.00000000E+00
  0.00000000E+00  0.00000000E+00  0.00000000E+00
  0.00000000E+00  0.00000000E+00  0.00000000E+00
  0.00000000E+00  0.00000000E+00  0.00000000E+00
  0.00000000E+00  0.00000000E+00  0.00000000E+00
  0.00000000E+00  0.00000000E+00  0.00000000E+00
  0.00000000E+00  0.00000000E+00  0.00000000E+00
  0.00000000E+00  0.00000000E+00  0.00000000E+00
  0.00000000E+00  0.00000000E+00  0.00000000E+00
  0.00000000E+00  0.00000000E+00  0.00000000E+00
  0.00000000E+00  0.00000000E+00  0.00000000E+00
  0.00000000E+00  0.00000000E+00  0.00000000E+00
  0.00000000E+00  0.00000000E+00  0.00000000E+00
  0.00000000E+00  0.00000000E+00  0.00000000E+00
  0.00000000E+00  0.00000000E+00  0.00000000E+00
  0.00000000E+00  0.00000000E+00  0.00000000E+00
  0.00000000E+00  0.00000000E+00  0.00000000E+00
  0.00000000E+00  0.00000000E+00  0.00000000E+00
  0.00000000E+00  0.00000000E+00  0.00000000E+00
  0.00000000E+00  0.00000000E+00  0.00000000E+00
  0.00000000E+00  0.00000000E+00  0.00000000E+00
  0.00000000E+00  0.00000000E+00  0.00000000E+00
  0.00000000E+00  0.00000000E+00  0.00000000E+00
  0.00000000E+00  0.00000000E+00  0.00000000E+00
  0.00000000E+00  0.00000000E+00  0.00000000E+00
  0.00000000E+00  0.00000000E+00  0.00000000E+00
  0.00000000E+00  0.00000000E+00  0.00000000E+00
  0.00000000E+00  0.00000000E+00  0.00000000E+00
  0.00000000E+00  0.00000000E+00  0.00000000E+00
  0.00000000E+00  0.00000000E+00  0.00000000E+00
  0.00000000E+00  0.00000000E+00  0.00000000E+00
  0.00000000E+00  0.00000000E+00  0.00000000E+00
  0.00000000E+00  0.00000000E+00  0.00000000E+00
  0.00000000E+00  0.00000000E+00  0.00000000E+00
  0.00000000E+00  0.00000000E+00  0.00000000E+00
  0.00000000E+00  0.00000000E+00  0.00000000E+00
  0.00000000E+00  0.00000000E+00  0.00000000E+00
  0.00000000E+00  0.00000000E+00  0.00000000E+00
  0.00000000E+00  0.00000000E+00  0.00000000E+00
  0.00000000E+00  0.00000000E+00  0.00000000E+00
  0.00000000E+00  0.00000000E+00  0.00000000E+00
  0.00000000E+00  0.00000000E+00  0.00000000E+00
  0.00000000E+00  0.00000000E+00  0.00000000E+00
  0.00000000E+00  0.00000000E+00  0.00000000E+00
  0.00000000E+00  0.00000000E+00  0.00000000E+00
  0.00000000E+00  0.00000000E+00  0.00000000E+00
  0.00000000E+00  0.00000000E+00  0.00000000E+00
  0.00000000E+00  0.00000000E+00  0.00000000E+00
  0.00000000E+00  0.00000000E+00  0.00000000E+00
  0.00000000E+00  0.00000000E+00  0.00000000E+00
  0.00000000E+00  0.00000000E+00  0.00000000E+00
  0.00000000E+00  0.00000000E+00  0.00000000E+00
  0.00000000E+00  0.00000000E+00  0.00000000E+00
  0.00000000E+00  0.00000000E+00  0.00000000E+00
  0.00000000E+00  0.00000000E+00  0.00000000E+00
  0.00000000E+00  0.00000000E+00  0.00000000E+00
  0.00000000E+00  0.00000000E+00  0.00000000E+00
  0.00000000E+00  0.00000000E+00  0.00000000E+00
  0.00000000E+00  0.00000000E+00  0.00000000E+00
  0.00000000E+00  0.00000000E+00  0.00000000E+00
  0.00000000E+00  0.00000000E+00  0.00000000E+00
  0.00000000E+00  0.00000000E+00  0.00000000E+00
  0.00000000E+00  0.00000000E+00  0.00000000E+00
  0.00000000E+00  0.00000000E+00  0.00000000E+00
  0.00000000E+00  0.00000000E+00  0.00000000E+00
  0.00000000E+00  0.00000000E+00  0.00000000E+00
  0.00000000E+00  0.00000000E+00  0.00000000E+00
  0.00000000E+00  0.00000000E+00  0.00000000E+00
  0.00000000E+00  0.00000000E+00  0.00000000E+00
  0.00000000E+00  0.00000000E+00  0.00000000E+00
  0.00000000E+00  0.00000000E+00  0.00000000E+00
  0.00000000E+00  0.00000000E+00  0.00000000E+00
  0.00000000E+00  0.00000000E+00  0.00000000E+00
  0.00000000E+00  0.00000000E+00  0.00000000E+00
  0.00000000E+00  0.00000000E+00  0.00000000E+00
  0.00000000E+00  0.00000000E+00  0.00000000E+00
  0.00000000E+00  0.00000000E+00  0.00000000E+00
  0.00000000E+00  0.00000000E+00  0.00000000E+00
  0.00000000E+00  0.00000000E+00  0.00000000E+00
  0.00000000E+00  0.00000000E+00  0.00000000E+00
  0.00000000E+00  0.00000000E+00  0.00000000E+00
  0.00000000E+00  0.00000000E+00  0.00000000E+00
  0.00000000E+00  0.00000000E+00  0.00000000E+00
  0.00000000E+00  0.00000000E+00  0.00000000E+00
  0.00000000E+00  0.00000000E+00  0.00000000E+00
  0.00000000E+00  0.00000000E+00  0.00000000E+00
  0.00000000E+00  0.00000000E+00  0.00000000E+00
  0.00000000E+00  0.00000000E+00  0.00000000E+00
  0.00000000E+00  0.00000000E+00  0.00000000E+00
  0.00000000E+00  0.00000000E+00  0.00000000E+00
  0.00000000E+00  0.00000000E+00  0.00000000E+00
  0.00000000E+00  0.00000000E+00  0.00000000E+00
  0.00000000E+00  0.00000000E+00  0.00000000E+00
  0.00000000E+00  0.00000000E+00  0.00000000E+00
  0.00000000E+00  0.00000000E+00  0.00000000E+00
  0.00000000E+00  0.00000000E+00  0.00000000E+00
  0.00000000E+00  0.00000000E+00  0.00000000E+00
  0.00000000E+00  0.00000000E+00  0.00000000E+00
  0.00000000E+00  0.00000000E+00  0.00000000E+00
  0.00000000E+00  0.00000000E+00  0.00000000E+00
  0.00000000E+00  0.00000000E+00  0.00000000E+00
  0.00000000E+00  0.00000000E+00  0.00000000E+00
  0.00000000E+00  0.00000000E+00  0.00000000E+00
  0.00000000E+00  0.00000000E+00  0.00000000E+00
  0.00000000E+00  0.00000000E+00  0.00000000E+00
  0.00000000E+00  0.00000000E+00  0.00000000E+00
  0.00000000E+00  0.00000000E+00  0.00000000E+00
  0.00000000E+00  0.00000000E+00  0.00000000E+00
  0.00000000E+00  0.00000000E+00  0.00000000E+00
  0.00000000E+00  0.00000000E+00  0.00000000E+00
  0.00000000E+00  0.00000000E+00  0.00000000E+00
  0.00000000E+00  0.00000000E+00  0.00000000E+00
  0.00000000E+00  0.00000000E+00  0.00000000E+00
  0.00000000E+00  0.00000000E+00  0.00000000E+00
  0.00000000E+00  0.00000000E+00  0.00000000E+00
  0.00000000E+00  0.00000000E+00  0.00000000E+00
  0.00000000E+00  0.00000000E+00  0.00000000E+00
  0.00000000E+00  0.00000000E+00  0.00000000E+00
  0.00000000E+00  0.00000000E+00  0.00000000E+00
  0.00000000E+00  0.00000000E+00  0.00000000E+00
  0.00000000E+00  0.00000000E+00  0.00000000E+00
  0.00000000E+00  0.00000000E+00  0.00000000E+00
  0.00000000E+00  0.00000000E+00  0.00000000E+00
  0.00000000E+00  0.00000000E+00  0.00000000E+00
  0.00000000E+00  0.00000000E+00  0.00000000E+00
  0.00000000E+00  0.00000000E+00  0.00000000E+00
  0.00000000E+00  0.00000000E+00  0.00000000E+00
  0.00000000E+00  0.00000000E+00  0.00000000E+00
  0.00000000E+00  0.00000000E+00  0.00000000E+00
  0.00000000E+00  0.00000000E+00  0.00000000E+00
  0.00000000E+00  0.00000000E+00  0.00000000E+00
  0.00000000E+00  0.00000000E+00  0.00000000E+00
  0.00000000E+00  0.00000000E+00  0.00000000E+00
  0.00000000E+00  0.00000000E+00  0.00000000E+00
  0.00000000E+00  0.00000000E+00  0.00000000E+00
  0.00000000E+00  0.00000000E+00  0.00000000E+00
  0.00000000E+00  0.00000000E+00  0.00000000E+00
  0.00000000E+00  0.00000000E+00  0.00000000E+00
  0.00000000E+00  0.00000000E+00  0.00000000E+00
  0.00000000E+00  0.00000000E+00  0.00000000E+00
  0.00000000E+00  0.00000000E+00  0.00000000E+00
  0.00000000E+00  0.00000000E+00  0.00000000E+00
  0.00000000E+00  0.00000000E+00  0.00000000E+00
  0.00000000E+00  0.00000000E+00  0.00000000E+00
  0.00000000E+00  0.00000000E+00  0.00000000E+00
  0.00000000E+00  0.00000000E+00  0.00000000E+00
  0.00000000E+00  0.00000000E+00  0.00000000E+00
  0.00000000E+00  0.00000000E+00  0.00000000E+00
  0.00000000E+00  0.00000000E+00  0.00000000E+00
  0.00000000E+00  0.00000000E+00  0.00000000E+00
  0.00000000E+00  0.00000000E+00  0.00000000E+00
  0.00000000E+00  0.00000000E+00  0.00000000E+00
  0.00000000E+00  0.00000000E+00  0.00000000E+00
  0.00000000E+00  0.00000000E+00  0.00000000E+00
  0.00000000E+00  0.00000000E+00  0.00000000E+00
  0.00000000E+00  0.00000000E+00  0.00000000E+00
  0.00000000E+00  0.00000000E+00  0.00000000E+00
  0.00000000E+00  0.00000000E+00  0.00000000E+00
  0.00000000E+00  0.00000000E+00  0.00000000E+00
  0.00000000E+00  0.00000000E+00  0.00000000E+00
  0.00000000E+00  0.00000000E+00  0.00000000E+00
  0.00000000E+00  0.00000000E+00  0.00000000E+00
  0.00000000E+00  0.00000000E+00  0.00000000E+00
  0.00000000E+00  0.00000000E+00  0.00000000E+00
  0.00000000E+00  0.00000000E+00  0.00000000E+00
  0.00000000E+00  0.00000000E+00  0.00000000E+00
  0.00000000E+00  0.00000000E+00  0.00000000E+00
  0.00000000E+00  0.00000000E+00  0.00000000E+00
  0.00000000E+00  0.00000000E+00  0.00000000E+00
  0.00000000E+00  0.00000000E+00  0.00000000E+00
  0.00000000E+00  0.00000000E+00  0.00000000E+00
  0.00000000E+00  0.00000000E+00  0.00000000E+00
  0.00000000E+00  0.00000000E+00  0.00000000E+00
  0.00000000E+00  0.00000000E+00  0.00000000E+00
  0.00000000E+00  0.00000000E+00  0.00000000E+00
  0.00000000E+00  0.00000000E+00  0.00000000E+00
  0.00000000E+00  0.00000000E+00  0.00000000E+00
  0.00000000E+00  0.00000000E+00  0.00000000E+00
  0.00000000E+00  0.00000000E+00  0.00000000E+00
  0.00000000E+00  0.00000000E+00  0.00000000E+00
  0.00000000E+00  0.00000000E+00  0.00000000E+00
  0.00000000E+00  0.00000000E+00  0.00000000E+00
  0.00000000E+00  0.00000000E+00  0.00000000E+00
  0.00000000E+00  0.00000000E+00  0.00000000E+00
  0.00000000E+00  0.00000000E+00  0.00000000E+00
  0.00000000E+00  0.00000000E+00  0.00000000E+00
  0.00000000E+00  0.00000000E+00  0.00000000E+00
  0.00000000E+00  0.00000000E+00  0.00000000E+00
  0.00000000E+00  0.00000000E+00  0.00000000E+00
  0.00000000E+00  0.00000000E+00  0.00000000E+00
  0.00000000E+00  0.00000000E+00  0.00000000E+00
  0.00000000E+00  0.00000000E+00  0.00000000E+00
  0.00000000E+00  0.00000000E+00  0.00000000E+00
  0.00000000E+00  0.00000000E+00  0.00000000E+00
  0.00000000E+00  0.00000000E+00  0.00000000E+00
  0.00000000E+00  0.00000000E+00  0.00000000E+00
  0.00000000E+00  0.00000000E+00  0.00000000E+00
  0.00000000E+00  0.00000000E+00  0.00000000E+00
  0.00000000E+00  0.00000000E+00  0.00000000E+00
  0.00000000E+00  0.00000000E+00  0.00000000E+00
  0.00000000E+00  0.00000000E+00  0.00000000E+00
  0.00000000E+00  0.00000000E+00  0.00000000E+00
  0.00000000E+00  0.00000000E+00  0.00000000E+00
  0.00000000E+00  0.00000000E+00  0.00000000E+00
  0.00000000E+00  0.00000000E+00  0.00000000E+00
  0.00000000E+00  0.00000000E+00  0.00000000E+00
  0.00000000E+00  0.00000000E+00  0.00000000E+00
  0.00000000E+00  0.00000000E+00  0.00000000E+00
  0.00000000E+00  0.00000000E+00  0.00000000E+00
  0.00000000E+00  0.00000000E+00  0.00000000E+00
  0.00000000E+00  0.00000000E+00  0.00000000E+00
  0.00000000E+00  0.00000000E+00  0.00000000E+00
  0.00000000E+00  0.00000000E+00  0.00000000E+00
  0.00000000E+00  0.00000000E+00  0.00000000E+00
  0.00000000E+00  0.00000000E+00  0.00000000E+00
  0.00000000E+00  0.00000000E+00  0.00000000E+00
  0.00000000E+00  0.00000000E+00  0.00000000E+00
  0.00000000E+00  0.00000000E+00  0.00000000E+00
  0.00000000E+00  0.00000000E+00  0.00000000E+00
  0.00000000E+00  0.00000000E+00  0.00000000E+00
  0.00000000E+00  0.00000000E+00  0.00000000E+00
  0.00000000E+00  0.00000000E+00  0.00000000E+00
  0.00000000E+00  0.00000000E+00  0.00000000E+00
  0.00000000E+00  0.00000000E+00  0.00000000E+00
  0.00000000E+00  0.00000000E+00  0.00000000E+00
  0.00000000E+00  0.00000000E+00  0.00000000E+00
  0.00000000E+00  0.00000000E+00  0.00000000E+00
  0.00000000E+00  0.00000000E+00  0.00000000E+00
