C  N  Cu O                              
   1.00000000000000     
     8.4847244584024217    0.0002776486207846   -0.0000016232455225
     0.0002813194583910    8.3781597643537413    0.0000013661483145
    -0.0000100165644405    0.0000055948446242   17.8922230678837231
   C    N    Cu   O 
    20     4     1     3
Direct
  0.4990763927943841  0.0894292407872734  0.1510832150736905
  0.3526911914292932  0.1719488033247277  0.1503484982731607
  0.6475525034411644  0.1662770597477852  0.1470646644240284
  0.7890238472157857  0.9167223765092883  0.1513987547693868
  0.7952362177082405  0.0825823169973658  0.1486913898638961
  0.9174666629395712  0.2033717623205801  0.1489763112032116
  0.8346313681218880  0.3523269369147846  0.1482209690827622
  0.2025977386310237  0.0900569147168593  0.1483582164746584
  0.0829985626218659  0.2097016590781408  0.1507000954380598
  0.1665468628058537  0.3591504788283271  0.1562672254827209
  0.0817043537982357  0.5044930739044636  0.1613298169720099
  0.1511958452739947  0.6561442424866998  0.1668061454401266
  0.3442955647499941  0.8468330022262373  0.1640964686802400
  0.1976115890477413  0.9251454733562013  0.1516606718962231
  0.0740027552536486  0.8036403460928380  0.1536197366478488
  0.6407994879112004  0.8323067713549093  0.1563316544573349
  0.8291122881249283  0.6471521284944027  0.1536723336978945
  0.9097660540869901  0.7985246378770453  0.1510124278100423
  0.4952590893395244  0.9168073821108855  0.1589019663781608
  0.9115649700003834  0.5006967652680400  0.1540128693702023
  0.6744939734530575  0.3276601727254321  0.1444717948865014
  0.3297664785716331  0.3341740240516644  0.1532698305988328
  0.3076247977302732  0.6908978583499121  0.1830315268992416
  0.6681057129888628  0.6682188312363475  0.1552248057004979
  0.5193528633168177  0.4809222906534217  0.1655682459999269
  0.3934826917125846  0.6047866189823945  0.2287785405032002
  0.5505058304372801  0.4534810731609296  0.3524445551919280
  0.4759497368542911  0.5618655231713640  0.3835894507205061
 
  0.00000000E+00  0.00000000E+00  0.00000000E+00
  0.00000000E+00  0.00000000E+00  0.00000000E+00
  0.00000000E+00  0.00000000E+00  0.00000000E+00
  0.00000000E+00  0.00000000E+00  0.00000000E+00
  0.00000000E+00  0.00000000E+00  0.00000000E+00
  0.00000000E+00  0.00000000E+00  0.00000000E+00
  0.00000000E+00  0.00000000E+00  0.00000000E+00
  0.00000000E+00  0.00000000E+00  0.00000000E+00
  0.00000000E+00  0.00000000E+00  0.00000000E+00
  0.00000000E+00  0.00000000E+00  0.00000000E+00
  0.00000000E+00  0.00000000E+00  0.00000000E+00
  0.00000000E+00  0.00000000E+00  0.00000000E+00
  0.00000000E+00  0.00000000E+00  0.00000000E+00
  0.00000000E+00  0.00000000E+00  0.00000000E+00
  0.00000000E+00  0.00000000E+00  0.00000000E+00
  0.00000000E+00  0.00000000E+00  0.00000000E+00
  0.00000000E+00  0.00000000E+00  0.00000000E+00
  0.00000000E+00  0.00000000E+00  0.00000000E+00
  0.00000000E+00  0.00000000E+00  0.00000000E+00
  0.00000000E+00  0.00000000E+00  0.00000000E+00
  0.00000000E+00  0.00000000E+00  0.00000000E+00
  0.00000000E+00  0.00000000E+00  0.00000000E+00
  0.00000000E+00  0.00000000E+00  0.00000000E+00
  0.00000000E+00  0.00000000E+00  0.00000000E+00
  0.00000000E+00  0.00000000E+00  0.00000000E+00
  0.00000000E+00  0.00000000E+00  0.00000000E+00
  0.00000000E+00  0.00000000E+00  0.00000000E+00
  0.00000000E+00  0.00000000E+00  0.00000000E+00
