C  N  H  Cu O                           
   1.00000000000000     
    11.1029153023801186  -19.2338042452836575    0.0029768331959390
    11.1028064668630044   19.2337413553495509    0.0039341571825775
     0.0047130301019369    0.0003735853447813   14.2252669409466534
   C    N    H    Cu   O 
   194     8    17     1     2
Direct
  0.9998061250660752  0.9997967221066167  0.1196312519152028
  0.0368815741743129  0.0738932298194119  0.1189443760367981
  0.9998207803434044  0.1109188119343765  0.1185216812875813
  0.0368849880749723  0.1850048418636505  0.1171474898817467
  0.9998332532257691  0.2220325122161470  0.1162805716502188
  0.0368903869571349  0.2961154045671930  0.1143971643271487
  0.9998312615626326  0.3331336345405238  0.1134805141918106
  0.0368986897857744  0.4072152035033645  0.1119328902728982
  0.9998159641125601  0.4442272695906960  0.1119412251111460
  0.0368708277246832  0.5183082033315588  0.1118283835006864
  0.9997979274011456  0.5553280090904206  0.1128144140989935
  0.0368382886649090  0.6294056428611532  0.1139289697338623
  0.9997750247558005  0.6664230998835529  0.1154343185897014
  0.0368182238822974  0.7405017427936399  0.1168358554995376
  0.9997685087580581  0.7775345161405631  0.1181583149144454
  0.0368214758615351  0.8516223983228948  0.1190172080560193
  0.9997848134543257  0.8886639343835471  0.1195901650488514
  0.0368515082009714  0.9627644284173039  0.1196583764358294
  0.1109484165594712  0.9998490602805145  0.1188052345114621
  0.1480175544253569  0.0739351901048298  0.1173588500381151
  0.1109775130054554  0.1109642175359386  0.1175993571226390
  0.1480263618934840  0.1850351478775995  0.1158116273555830
  0.1109793553698856  0.2220572790895251  0.1159162070159660
  0.1480270429033013  0.2961347235242892  0.1141950066971123
  0.1109803844288006  0.3331697857449056  0.1133127874952996
  0.1480267754349646  0.4072288563592535  0.1112786760796260
  0.1109909729007981  0.4442492146963207  0.1107542614869005
  0.1480436574583110  0.5183188681844397  0.1101661949771327
  0.1109710859620406  0.5553227370312366  0.1112747785382460
  0.1479881148238533  0.6294006451285604  0.1125206357122710
  0.1109275969910059  0.6664325638159748  0.1139177911792222
  0.1479511653592102  0.7405105752241611  0.1153826307245195
  0.1109041063385856  0.7775466744859122  0.1167010544844682
  0.1479458779365931  0.8516348830776239  0.1176838524930990
  0.1109153199072669  0.8886872043112856  0.1186388634784729
  0.1479675399212879  0.9627825004817619  0.1184942372815444
  0.2220511562999725  0.9998600041341845  0.1173474770195037
  0.2590755007654291  0.0739425910953610  0.1157221830402222
  0.2220733947089940  0.1109917075650158  0.1153531563631952
  0.2590887506625157  0.1850296966736855  0.1137069973420041
  0.2220734842556689  0.2220726415152883  0.1139469395794640
  0.2590714029742622  0.2961136033371478  0.1133661462775496
  0.2220759116482781  0.3331620639848581  0.1133600580200767
  0.2590816532749439  0.4072145489550709  0.1127049169551498
  0.2220929408749879  0.4442544477134421  0.1112345606920723
  0.2591148451955959  0.5183086551383067  0.1111505286363455
  0.2220988800397496  0.5553315135944731  0.1103780742541048
  0.2591047018116167  0.6293702889783105  0.1118423874802830
  0.2220767289938864  0.6664086100254430  0.1128648072159227
  0.2590740674312172  0.7404880977501913  0.1147769408570254
  0.2220349669717072  0.7775420762483539  0.1156826489993417
  0.2590622145341108  0.8516273184170540  0.1167656218997803
  0.2220268512084907  0.8886858822792992  0.1174026679436023
  0.2590620303213300  0.9627804377768731  0.1173409541312485
  0.3331424122260500  0.9998268877868172  0.1167802810980888
  0.3701554915682797  0.0739184995671246  0.1156925771089053
  0.3331318402446340  0.1109841044056615  0.1147221395119236
  0.3701434838104650  0.1850330665163744  0.1132419652774954
  0.3331126285817550  0.2220522154865693  0.1128276895289766
  0.3701567838247904  0.2961184178647443  0.1130920236867363
  0.3331339886136063  0.3331500561315022  0.1136429163934077
  0.3701614952383707  0.4071998968009254  0.1150958244348040
  0.3331330488785230  0.4442288589142057  0.1143913081802034
  0.3701508812391601  0.5182746337739431  0.1152210266281983
  0.3331305801773439  0.5552991696787665  0.1134717943422496
  0.3701787676817920  0.6293515497660244  0.1144118004427782
  0.3331468798057240  0.6663746945356662  0.1137364556774712
  0.3701640753235265  0.7404361411499322  0.1154673075510464
  0.3331494645731573  0.7775191023276878  0.1157312747099020
  0.3701678257618519  0.8516032360738082  0.1167130246362394
  0.3331399662690223  0.8886668201495487  0.1169164494426169
  0.3701667492660605  0.9627607355195912  0.1169482466427641
  0.4442405191085519  0.9997974498463892  0.1166796723175476
  0.4812580438817825  0.0738831746977875  0.1158158805397126
  0.4442328136270327  0.1109504812040634  0.1151405679126898
  0.4812442185161743  0.1850392747216602  0.1136884884929292
  0.4442101810155101  0.2220776601802131  0.1129536057043384
  0.4812627291155223  0.2961362299484114  0.1124964100995891
  0.4442172108257769  0.3331472545548159  0.1133765362992100
  0.4812338402175733  0.4071637651595735  0.1153900710044418
  0.4441958321341870  0.4441820920232099  0.1167577844331439
  0.4812152341320378  0.5182165460716758  0.1181010105686257
  0.4442004709357212  0.5552672592715023  0.1172405574635744
  0.4812537659387597  0.6293209849669510  0.1167486186538715
  0.4442071579179805  0.6663428097836738  0.1159358823162727
  0.4812710091202453  0.7404100407175819  0.1159786420520645
  0.4442477116329297  0.7774692036472716  0.1163440121443524
  0.4812688818788394  0.8515668952999113  0.1168176735212297
  0.4442476755743525  0.8886395751719394  0.1170096796617539
  0.4812691192556378  0.9627294892241646  0.1169258293370747
  0.5553410502111794  0.9997637312862798  0.1167261484697581
  0.5923680792371497  0.0738565715518643  0.1160243127236819
  0.5553363432010170  0.1109159117809372  0.1152984889816228
  0.5923519062623609  0.1849985433345967  0.1137990743935694
  0.5553286215654861  0.2220716196996395  0.1128291370911030
  0.5923515974600784  0.2961341731538131  0.1112969492980093
  0.5552928004905636  0.3331344197475992  0.1118706513455705
  0.5923509094666490  0.4071788867159477  0.1129416780715277
  0.5553032380490547  0.4441681015080373  0.1153578838945424
  0.5923462702366543  0.5182088267783844  0.1170058346402455
  0.5553014311134898  0.5552409800645189  0.1181492042457144
  0.5923409412797795  0.6293083067596423  0.1168752968705185
  0.5553106989669754  0.6663420019318911  0.1160612187233934
  0.5923677927583071  0.7403987110827460  0.1142286435054752
  0.5553472079885261  0.7774348022051173  0.1150286721460758
  0.5923663626458100  0.8515124514681351  0.1152820293666262
  0.5553474869135675  0.8885968580153754  0.1164995538712316
  0.5923660419630028  0.9626928997100568  0.1166977425415626
  0.6664458557656074  0.9997360884836837  0.1165754346986492
  0.7034834738780530  0.0738353199522136  0.1164605023013121
  0.6664452163558455  0.1108930660579125  0.1157943379971965
  0.7034720037891635  0.1849786401849758  0.1146105469160392
  0.6664313218911957  0.2220322773391535  0.1133117868139906
  0.7034333245773757  0.2961159611290984  0.1117231175619896
  0.6664072755076238  0.3331516150940357  0.1105721249063456
  0.7034364969074898  0.4071981531126044  0.1108186341178776
  0.6664014320923978  0.4441971117111225  0.1124895235396179
  0.7034279197337686  0.5182322321120220  0.1144615793368456
  0.6663991834486018  0.5552414790486248  0.1163406285636349
  0.7034114432530065  0.6293121808093097  0.1166912616664943
  0.6664030423157263  0.6663481527831040  0.1157804325304479
  0.7034098145864605  0.7403911648801164  0.1142135070950246
  0.6663909426140608  0.7774174827301500  0.1131644980548166
  0.7034222533116297  0.8514755574713863  0.1136984492606725
  0.6664288516183801  0.8885526330611139  0.1147225780691485
  0.7034589542960262  0.9626539697133132  0.1161160880611340
  0.7775444954819732  0.9997335801274353  0.1169280818244971
  0.8145961768206834  0.0738301546167677  0.1172935269070961
  0.7775627068000519  0.1108821289207929  0.1165603792159439
  0.8146062294300644  0.1849737211670346  0.1156787099242165
  0.7775574825248626  0.2220096343663610  0.1145145292539789
  0.8145836965918396  0.2960930089021948  0.1133307532044417
  0.7775224085570940  0.3331285038228612  0.1121399887645247
  0.8145488493824464  0.4072064548608524  0.1117183023569804
  0.7774821119719700  0.4442128517636672  0.1113882607504938
  0.8145300340143649  0.5182599419142083  0.1130709579095826
  0.7774821740220693  0.5552624526670377  0.1146141073679126
  0.8145267975013643  0.6293248112595065  0.1164742695405946
  0.7774752307230697  0.6663535798426772  0.1170084883326056
  0.8145221705525147  0.7404442488303632  0.1172249775241645
  0.7774725001483285  0.7774516568276908  0.1156299664224821
  0.8145338675063843  0.8515325108462466  0.1164168931832367
  0.7774933980383815  0.8885646852762136  0.1154611117950175
  0.8145608503964328  0.9626567617871509  0.1171117615867349
  0.8886563723656279  0.9997477392556454  0.1185479291563219
  0.9257247692737345  0.0738515832665803  0.1185741300431592
  0.8886887525573067  0.1108924364163145  0.1177085335368274
  0.9257440594578014  0.1849818689625520  0.1167242483452885
  0.8886927009896706  0.2220148990679106  0.1155766780018785
  0.9257364692034753  0.2960929327842762  0.1141539299669564
  0.8886750258637579  0.3331164626204282  0.1132284625698376
  0.9257196398932908  0.4071960203585360  0.1124174309248567
  0.8886468518629937  0.4442164808521555  0.1122504973589708
  0.9257036085593715  0.5182950948337505  0.1128399063389840
  0.8886144279482791  0.5552966444155752  0.1137728495185823
  0.9256807782977639  0.6293752445675399  0.1154243051147904
  0.8886189118409638  0.6663880595483400  0.1167874216638934
  0.9256764199369627  0.7404761148895803  0.1180553091320335
  0.8886228573229147  0.7775050979200209  0.1183661783338177
  0.9256882805543595  0.8515939979956998  0.1190717727938347
  0.8886247963007161  0.8886167276075931  0.1185011794534924
  0.9257003582282477  0.9627154015991956  0.1191712727292929
  0.2660623768410617  0.1308938184041696  0.3517089035896515
  0.3355778847671138  0.1841888616438445  0.3475586245066978
  0.3491089790924058  0.2526997494725730  0.3441375476601438
  0.2938985629881923  0.2677724974156859  0.3436473352855209
  0.2246381301527050  0.2142892641564851  0.3465667347166355
  0.2113952938802231  0.1457355394323131  0.3513139482864269
  0.3260711865446494  0.3439292581474867  0.3425264858954532
  0.4140965032985549  0.3198128098039867  0.3431420820278938
  0.3213279584754433  0.4478314759947772  0.3465073067416751
  0.3973319396464496  0.5617425918386405  0.3606845817799947
  0.2798576264860795  0.4828241061099955  0.3463603713300913
  0.3279465161311508  0.5548728952534377  0.3546918279594621
  0.3057417856890136  0.6035632778559135  0.3539364880174765
  0.2342497147900549  0.5788031271135834  0.3454472666333721
  0.1863730269922231  0.5071686212437777  0.3382084960006755
  0.2086859345178748  0.4582402603585870  0.3384376446041041
  0.5357779461346078  0.3913822981897409  0.3480264438542980
  0.6117230041994505  0.5066207429161543  0.3607863169221733
  0.6285283963358957  0.3517786875948654  0.3397644967654749
  0.7003514818669933  0.3775080636547248  0.3398082328730888
  0.7477891506977626  0.4493570375754453  0.3465093458257916
  0.7247629991976358  0.4974869724362864  0.3538319781375187
  0.6531333767920086  0.4719259689510462  0.3543040139271996
  0.6054949197351283  0.3996790319447581  0.3470240668002016
  0.6112783615958350  0.6131035861948405  0.3712373105986652
  0.5193063504599986  0.6362816219204757  0.3725371661479377
  0.6397253632456169  0.6868526438852743  0.3530873034969308
  0.7082974250252899  0.7405511974431563  0.3402502292037888
  0.7205831015014397  0.8085214389091205  0.3334443322092604
  0.6652850411974319  0.8225313728557426  0.3339546306657253
  0.5962638836881186  0.7689665880728973  0.3416592743010516
  0.5835800685167503  0.7010539300013447  0.3538959590758820
  0.3971935844953602  0.3714521606200052  0.3409389532513228
  0.2915791061025989  0.3784964771222278  0.3423611412802032
  0.3910021416021900  0.4969886938676250  0.3537521850734130
  0.4780867736414037  0.3289577883924193  0.3445922842485927
  0.5418560932701261  0.4565123251027932  0.3558127662755395
  0.6425738521794736  0.5761585770025621  0.3653077904933916
  0.5411059792440625  0.5882154683458288  0.3948216061406874
  0.4551501179185902  0.6245287318175310  0.3666004310801281
  0.2539071529889432  0.0769000544717444  0.3553156615224069
  0.3780968809295309  0.1730556052330317  0.3477328906041228
  0.1824937326059601  0.2259738000622535  0.3459449537212981
  0.1578406788308146  0.1029331539621098  0.3545402209651303
  0.3431546979415056  0.6589759798785266  0.3590337424636896
  0.2153327057079120  0.6156143072380511  0.3434175709812150
  0.1311893701277119  0.4897160176330174  0.3308621042686873
  0.1720295533552336  0.4027853609017675  0.3315211183208276
  0.5914212832588488  0.2963883169545607  0.3335382474128405
  0.7200690041351021  0.3415455014594780  0.3331613813035030
  0.8034010901501901  0.4676929728031058  0.3451972958310248
  0.7611459228844913  0.5531434867763146  0.3587047376273895
  0.7506918440896740  0.7292666393591237  0.3382593107480951
  0.7737473995256275  0.8514846935430060  0.3264236095524807
  0.6766932985346713  0.8761250725837283  0.3274663174282937
  0.5533182065037686  0.7794213545588151  0.3409159911726220
  0.4252753031004327  0.4560341811605227  0.5575338633224456
  0.4562517840640969  0.4562235907816721  0.3998508441423364
  0.5102934398204141  0.5399298905636619  0.4614989038180588
  0.4070508943883064  0.4156764974769602  0.5160892736433554
 
  0.00000000E+00  0.00000000E+00  0.00000000E+00
  0.00000000E+00  0.00000000E+00  0.00000000E+00
  0.00000000E+00  0.00000000E+00  0.00000000E+00
  0.00000000E+00  0.00000000E+00  0.00000000E+00
  0.00000000E+00  0.00000000E+00  0.00000000E+00
  0.00000000E+00  0.00000000E+00  0.00000000E+00
  0.00000000E+00  0.00000000E+00  0.00000000E+00
  0.00000000E+00  0.00000000E+00  0.00000000E+00
  0.00000000E+00  0.00000000E+00  0.00000000E+00
  0.00000000E+00  0.00000000E+00  0.00000000E+00
  0.00000000E+00  0.00000000E+00  0.00000000E+00
  0.00000000E+00  0.00000000E+00  0.00000000E+00
  0.00000000E+00  0.00000000E+00  0.00000000E+00
  0.00000000E+00  0.00000000E+00  0.00000000E+00
  0.00000000E+00  0.00000000E+00  0.00000000E+00
  0.00000000E+00  0.00000000E+00  0.00000000E+00
  0.00000000E+00  0.00000000E+00  0.00000000E+00
  0.00000000E+00  0.00000000E+00  0.00000000E+00
  0.00000000E+00  0.00000000E+00  0.00000000E+00
  0.00000000E+00  0.00000000E+00  0.00000000E+00
  0.00000000E+00  0.00000000E+00  0.00000000E+00
  0.00000000E+00  0.00000000E+00  0.00000000E+00
  0.00000000E+00  0.00000000E+00  0.00000000E+00
  0.00000000E+00  0.00000000E+00  0.00000000E+00
  0.00000000E+00  0.00000000E+00  0.00000000E+00
  0.00000000E+00  0.00000000E+00  0.00000000E+00
  0.00000000E+00  0.00000000E+00  0.00000000E+00
  0.00000000E+00  0.00000000E+00  0.00000000E+00
  0.00000000E+00  0.00000000E+00  0.00000000E+00
  0.00000000E+00  0.00000000E+00  0.00000000E+00
  0.00000000E+00  0.00000000E+00  0.00000000E+00
  0.00000000E+00  0.00000000E+00  0.00000000E+00
  0.00000000E+00  0.00000000E+00  0.00000000E+00
  0.00000000E+00  0.00000000E+00  0.00000000E+00
  0.00000000E+00  0.00000000E+00  0.00000000E+00
  0.00000000E+00  0.00000000E+00  0.00000000E+00
  0.00000000E+00  0.00000000E+00  0.00000000E+00
  0.00000000E+00  0.00000000E+00  0.00000000E+00
  0.00000000E+00  0.00000000E+00  0.00000000E+00
  0.00000000E+00  0.00000000E+00  0.00000000E+00
  0.00000000E+00  0.00000000E+00  0.00000000E+00
  0.00000000E+00  0.00000000E+00  0.00000000E+00
  0.00000000E+00  0.00000000E+00  0.00000000E+00
  0.00000000E+00  0.00000000E+00  0.00000000E+00
  0.00000000E+00  0.00000000E+00  0.00000000E+00
  0.00000000E+00  0.00000000E+00  0.00000000E+00
  0.00000000E+00  0.00000000E+00  0.00000000E+00
  0.00000000E+00  0.00000000E+00  0.00000000E+00
  0.00000000E+00  0.00000000E+00  0.00000000E+00
  0.00000000E+00  0.00000000E+00  0.00000000E+00
  0.00000000E+00  0.00000000E+00  0.00000000E+00
  0.00000000E+00  0.00000000E+00  0.00000000E+00
  0.00000000E+00  0.00000000E+00  0.00000000E+00
  0.00000000E+00  0.00000000E+00  0.00000000E+00
  0.00000000E+00  0.00000000E+00  0.00000000E+00
  0.00000000E+00  0.00000000E+00  0.00000000E+00
  0.00000000E+00  0.00000000E+00  0.00000000E+00
  0.00000000E+00  0.00000000E+00  0.00000000E+00
  0.00000000E+00  0.00000000E+00  0.00000000E+00
  0.00000000E+00  0.00000000E+00  0.00000000E+00
  0.00000000E+00  0.00000000E+00  0.00000000E+00
  0.00000000E+00  0.00000000E+00  0.00000000E+00
  0.00000000E+00  0.00000000E+00  0.00000000E+00
  0.00000000E+00  0.00000000E+00  0.00000000E+00
  0.00000000E+00  0.00000000E+00  0.00000000E+00
  0.00000000E+00  0.00000000E+00  0.00000000E+00
  0.00000000E+00  0.00000000E+00  0.00000000E+00
  0.00000000E+00  0.00000000E+00  0.00000000E+00
  0.00000000E+00  0.00000000E+00  0.00000000E+00
  0.00000000E+00  0.00000000E+00  0.00000000E+00
  0.00000000E+00  0.00000000E+00  0.00000000E+00
  0.00000000E+00  0.00000000E+00  0.00000000E+00
  0.00000000E+00  0.00000000E+00  0.00000000E+00
  0.00000000E+00  0.00000000E+00  0.00000000E+00
  0.00000000E+00  0.00000000E+00  0.00000000E+00
  0.00000000E+00  0.00000000E+00  0.00000000E+00
  0.00000000E+00  0.00000000E+00  0.00000000E+00
  0.00000000E+00  0.00000000E+00  0.00000000E+00
  0.00000000E+00  0.00000000E+00  0.00000000E+00
  0.00000000E+00  0.00000000E+00  0.00000000E+00
  0.00000000E+00  0.00000000E+00  0.00000000E+00
  0.00000000E+00  0.00000000E+00  0.00000000E+00
  0.00000000E+00  0.00000000E+00  0.00000000E+00
  0.00000000E+00  0.00000000E+00  0.00000000E+00
  0.00000000E+00  0.00000000E+00  0.00000000E+00
  0.00000000E+00  0.00000000E+00  0.00000000E+00
  0.00000000E+00  0.00000000E+00  0.00000000E+00
  0.00000000E+00  0.00000000E+00  0.00000000E+00
  0.00000000E+00  0.00000000E+00  0.00000000E+00
  0.00000000E+00  0.00000000E+00  0.00000000E+00
  0.00000000E+00  0.00000000E+00  0.00000000E+00
  0.00000000E+00  0.00000000E+00  0.00000000E+00
  0.00000000E+00  0.00000000E+00  0.00000000E+00
  0.00000000E+00  0.00000000E+00  0.00000000E+00
  0.00000000E+00  0.00000000E+00  0.00000000E+00
  0.00000000E+00  0.00000000E+00  0.00000000E+00
  0.00000000E+00  0.00000000E+00  0.00000000E+00
  0.00000000E+00  0.00000000E+00  0.00000000E+00
  0.00000000E+00  0.00000000E+00  0.00000000E+00
  0.00000000E+00  0.00000000E+00  0.00000000E+00
  0.00000000E+00  0.00000000E+00  0.00000000E+00
  0.00000000E+00  0.00000000E+00  0.00000000E+00
  0.00000000E+00  0.00000000E+00  0.00000000E+00
  0.00000000E+00  0.00000000E+00  0.00000000E+00
  0.00000000E+00  0.00000000E+00  0.00000000E+00
  0.00000000E+00  0.00000000E+00  0.00000000E+00
  0.00000000E+00  0.00000000E+00  0.00000000E+00
  0.00000000E+00  0.00000000E+00  0.00000000E+00
  0.00000000E+00  0.00000000E+00  0.00000000E+00
  0.00000000E+00  0.00000000E+00  0.00000000E+00
  0.00000000E+00  0.00000000E+00  0.00000000E+00
  0.00000000E+00  0.00000000E+00  0.00000000E+00
  0.00000000E+00  0.00000000E+00  0.00000000E+00
  0.00000000E+00  0.00000000E+00  0.00000000E+00
  0.00000000E+00  0.00000000E+00  0.00000000E+00
  0.00000000E+00  0.00000000E+00  0.00000000E+00
  0.00000000E+00  0.00000000E+00  0.00000000E+00
  0.00000000E+00  0.00000000E+00  0.00000000E+00
  0.00000000E+00  0.00000000E+00  0.00000000E+00
  0.00000000E+00  0.00000000E+00  0.00000000E+00
  0.00000000E+00  0.00000000E+00  0.00000000E+00
  0.00000000E+00  0.00000000E+00  0.00000000E+00
  0.00000000E+00  0.00000000E+00  0.00000000E+00
  0.00000000E+00  0.00000000E+00  0.00000000E+00
  0.00000000E+00  0.00000000E+00  0.00000000E+00
  0.00000000E+00  0.00000000E+00  0.00000000E+00
  0.00000000E+00  0.00000000E+00  0.00000000E+00
  0.00000000E+00  0.00000000E+00  0.00000000E+00
  0.00000000E+00  0.00000000E+00  0.00000000E+00
  0.00000000E+00  0.00000000E+00  0.00000000E+00
  0.00000000E+00  0.00000000E+00  0.00000000E+00
  0.00000000E+00  0.00000000E+00  0.00000000E+00
  0.00000000E+00  0.00000000E+00  0.00000000E+00
  0.00000000E+00  0.00000000E+00  0.00000000E+00
  0.00000000E+00  0.00000000E+00  0.00000000E+00
  0.00000000E+00  0.00000000E+00  0.00000000E+00
  0.00000000E+00  0.00000000E+00  0.00000000E+00
  0.00000000E+00  0.00000000E+00  0.00000000E+00
  0.00000000E+00  0.00000000E+00  0.00000000E+00
  0.00000000E+00  0.00000000E+00  0.00000000E+00
  0.00000000E+00  0.00000000E+00  0.00000000E+00
  0.00000000E+00  0.00000000E+00  0.00000000E+00
  0.00000000E+00  0.00000000E+00  0.00000000E+00
  0.00000000E+00  0.00000000E+00  0.00000000E+00
  0.00000000E+00  0.00000000E+00  0.00000000E+00
  0.00000000E+00  0.00000000E+00  0.00000000E+00
  0.00000000E+00  0.00000000E+00  0.00000000E+00
  0.00000000E+00  0.00000000E+00  0.00000000E+00
  0.00000000E+00  0.00000000E+00  0.00000000E+00
  0.00000000E+00  0.00000000E+00  0.00000000E+00
  0.00000000E+00  0.00000000E+00  0.00000000E+00
  0.00000000E+00  0.00000000E+00  0.00000000E+00
  0.00000000E+00  0.00000000E+00  0.00000000E+00
  0.00000000E+00  0.00000000E+00  0.00000000E+00
  0.00000000E+00  0.00000000E+00  0.00000000E+00
  0.00000000E+00  0.00000000E+00  0.00000000E+00
  0.00000000E+00  0.00000000E+00  0.00000000E+00
  0.00000000E+00  0.00000000E+00  0.00000000E+00
  0.00000000E+00  0.00000000E+00  0.00000000E+00
  0.00000000E+00  0.00000000E+00  0.00000000E+00
  0.00000000E+00  0.00000000E+00  0.00000000E+00
  0.00000000E+00  0.00000000E+00  0.00000000E+00
  0.00000000E+00  0.00000000E+00  0.00000000E+00
  0.00000000E+00  0.00000000E+00  0.00000000E+00
  0.00000000E+00  0.00000000E+00  0.00000000E+00
  0.00000000E+00  0.00000000E+00  0.00000000E+00
  0.00000000E+00  0.00000000E+00  0.00000000E+00
  0.00000000E+00  0.00000000E+00  0.00000000E+00
  0.00000000E+00  0.00000000E+00  0.00000000E+00
  0.00000000E+00  0.00000000E+00  0.00000000E+00
  0.00000000E+00  0.00000000E+00  0.00000000E+00
  0.00000000E+00  0.00000000E+00  0.00000000E+00
  0.00000000E+00  0.00000000E+00  0.00000000E+00
  0.00000000E+00  0.00000000E+00  0.00000000E+00
  0.00000000E+00  0.00000000E+00  0.00000000E+00
  0.00000000E+00  0.00000000E+00  0.00000000E+00
  0.00000000E+00  0.00000000E+00  0.00000000E+00
  0.00000000E+00  0.00000000E+00  0.00000000E+00
  0.00000000E+00  0.00000000E+00  0.00000000E+00
  0.00000000E+00  0.00000000E+00  0.00000000E+00
  0.00000000E+00  0.00000000E+00  0.00000000E+00
  0.00000000E+00  0.00000000E+00  0.00000000E+00
  0.00000000E+00  0.00000000E+00  0.00000000E+00
  0.00000000E+00  0.00000000E+00  0.00000000E+00
  0.00000000E+00  0.00000000E+00  0.00000000E+00
  0.00000000E+00  0.00000000E+00  0.00000000E+00
  0.00000000E+00  0.00000000E+00  0.00000000E+00
  0.00000000E+00  0.00000000E+00  0.00000000E+00
  0.00000000E+00  0.00000000E+00  0.00000000E+00
  0.00000000E+00  0.00000000E+00  0.00000000E+00
  0.00000000E+00  0.00000000E+00  0.00000000E+00
  0.00000000E+00  0.00000000E+00  0.00000000E+00
  0.00000000E+00  0.00000000E+00  0.00000000E+00
  0.00000000E+00  0.00000000E+00  0.00000000E+00
  0.00000000E+00  0.00000000E+00  0.00000000E+00
  0.00000000E+00  0.00000000E+00  0.00000000E+00
  0.00000000E+00  0.00000000E+00  0.00000000E+00
  0.00000000E+00  0.00000000E+00  0.00000000E+00
  0.00000000E+00  0.00000000E+00  0.00000000E+00
  0.00000000E+00  0.00000000E+00  0.00000000E+00
  0.00000000E+00  0.00000000E+00  0.00000000E+00
  0.00000000E+00  0.00000000E+00  0.00000000E+00
  0.00000000E+00  0.00000000E+00  0.00000000E+00
  0.00000000E+00  0.00000000E+00  0.00000000E+00
  0.00000000E+00  0.00000000E+00  0.00000000E+00
  0.00000000E+00  0.00000000E+00  0.00000000E+00
  0.00000000E+00  0.00000000E+00  0.00000000E+00
  0.00000000E+00  0.00000000E+00  0.00000000E+00
  0.00000000E+00  0.00000000E+00  0.00000000E+00
  0.00000000E+00  0.00000000E+00  0.00000000E+00
  0.00000000E+00  0.00000000E+00  0.00000000E+00
  0.00000000E+00  0.00000000E+00  0.00000000E+00
  0.00000000E+00  0.00000000E+00  0.00000000E+00
  0.00000000E+00  0.00000000E+00  0.00000000E+00
  0.00000000E+00  0.00000000E+00  0.00000000E+00
  0.00000000E+00  0.00000000E+00  0.00000000E+00
  0.00000000E+00  0.00000000E+00  0.00000000E+00
  0.00000000E+00  0.00000000E+00  0.00000000E+00
  0.00000000E+00  0.00000000E+00  0.00000000E+00
  0.00000000E+00  0.00000000E+00  0.00000000E+00
  0.00000000E+00  0.00000000E+00  0.00000000E+00
  0.00000000E+00  0.00000000E+00  0.00000000E+00
