C  N  Cu O                              
   1.00000000000000     
     8.4847244584024217    0.0002776486207846   -0.0000016232455225
     0.0002813194583910    8.3781597643537413    0.0000013661483145
    -0.0000100165644405    0.0000055948446242   17.8922230678837231
   C    N    Cu   O 
    20     4     1     2
Direct
  0.4962490338911458  0.0923696010390286  0.1505503015519047
  0.3489720311325527  0.1740447555764756  0.1497402185605640
  0.6447169169814785  0.1689851671782330  0.1462552023256255
  0.7893382162136678  0.9206083828426201  0.1495048796715067
  0.7925245869926957  0.0853083560782305  0.1475091155644357
  0.9149271010129988  0.2061929411022718  0.1478759879779274
  0.8324369726915795  0.3553348742288425  0.1474472736567931
  0.2000751255481862  0.0898316221084685  0.1467301192919685
  0.0792648283319968  0.2094606656506233  0.1491216106300922
  0.1629896495817536  0.3592337337545647  0.1554328082344453
  0.0792441909084892  0.5056404214309594  0.1607444791816949
  0.1510055004290872  0.6559255956319171  0.1660338709507144
  0.3446992416611701  0.8473313783198025  0.1633131796963609
  0.1978042747646260  0.9251269096663923  0.1504642562630922
  0.0742771423068524  0.8035134060702145  0.1523955900258755
  0.6407031777927286  0.8358986104641515  0.1550636214864283
  0.8275140228598451  0.6510788163945352  0.1526220224866420
  0.9101217140833378  0.8011335101251033  0.1491207944708873
  0.4942769873639677  0.9196835371826669  0.1581911508002833
  0.9090248370411058  0.5037153105731863  0.1533759306844386
  0.6722337886263174  0.3304619306350112  0.1421000376456543
  0.3243271186505546  0.3358485266652890  0.1538943542799893
  0.3084854073612259  0.6906073536088410  0.1836683552337992
  0.6665257662622739  0.6737253546467534  0.1551308024444180
  0.5291643137963908  0.4734708447930877  0.1873057124955207
  0.3869109409251703  0.6125960190118407  0.2348962227018207
  0.5963079012644928  0.3969130337869727  0.2806274665031170
 
  0.00000000E+00  0.00000000E+00  0.00000000E+00
  0.00000000E+00  0.00000000E+00  0.00000000E+00
  0.00000000E+00  0.00000000E+00  0.00000000E+00
  0.00000000E+00  0.00000000E+00  0.00000000E+00
  0.00000000E+00  0.00000000E+00  0.00000000E+00
  0.00000000E+00  0.00000000E+00  0.00000000E+00
  0.00000000E+00  0.00000000E+00  0.00000000E+00
  0.00000000E+00  0.00000000E+00  0.00000000E+00
  0.00000000E+00  0.00000000E+00  0.00000000E+00
  0.00000000E+00  0.00000000E+00  0.00000000E+00
  0.00000000E+00  0.00000000E+00  0.00000000E+00
  0.00000000E+00  0.00000000E+00  0.00000000E+00
  0.00000000E+00  0.00000000E+00  0.00000000E+00
  0.00000000E+00  0.00000000E+00  0.00000000E+00
  0.00000000E+00  0.00000000E+00  0.00000000E+00
  0.00000000E+00  0.00000000E+00  0.00000000E+00
  0.00000000E+00  0.00000000E+00  0.00000000E+00
  0.00000000E+00  0.00000000E+00  0.00000000E+00
  0.00000000E+00  0.00000000E+00  0.00000000E+00
  0.00000000E+00  0.00000000E+00  0.00000000E+00
  0.00000000E+00  0.00000000E+00  0.00000000E+00
  0.00000000E+00  0.00000000E+00  0.00000000E+00
  0.00000000E+00  0.00000000E+00  0.00000000E+00
  0.00000000E+00  0.00000000E+00  0.00000000E+00
  0.00000000E+00  0.00000000E+00  0.00000000E+00
  0.00000000E+00  0.00000000E+00  0.00000000E+00
  0.00000000E+00  0.00000000E+00  0.00000000E+00
