C  N  Cu O                              
   1.00000000000000     
     8.4847244584024217    0.0002776486207846   -0.0000016232455225
     0.0002813194583910    8.3781597643537413    0.0000013661483145
    -0.0000100165644405    0.0000055948446242   17.8922230678837231
   C    N    Cu   O 
    20     4     1     1
Direct
  0.5004740772991543  0.0880196988081922  0.1520783712043797
  0.3541288356758021  0.1706057652968398  0.1509661499486631
  0.6489426307444695  0.1649593510681845  0.1483707832500156
  0.7905896682461172  0.9153503074454739  0.1517519307984579
  0.7966502436717869  0.0812994572968584  0.1496502468159200
  0.9188479992636741  0.2020331566749373  0.1498422706148506
  0.8360244933773656  0.3509600782211086  0.1492420433200848
  0.2040922156458817  0.0885236346537300  0.1489086685909601
  0.0844133413140714  0.2082298026145337  0.1511838564216760
  0.1678761872051093  0.3576905003751588  0.1567086723333662
  0.0831306106644999  0.5030973363929065  0.1619183077983195
  0.1528171886600322  0.6546190131595779  0.1679433553325648
  0.3458779330673125  0.8453119090404220  0.1655580941216594
  0.1992634113851408  0.9235972392029826  0.1525755579423532
  0.0756811799703802  0.8020587947091329  0.1542662950686028
  0.6423379509420463  0.8310356301558358  0.1567180926662073
  0.8305358868291187  0.6458042082286157  0.1535760935398251
  0.9113843303428418  0.7970895701016021  0.1510393641357473
  0.4967704399839369  0.9154385593210417  0.1598811762929245
  0.9130927287716428  0.4993976807975217  0.1544058012006846
  0.6758472537611310  0.3263375683523309  0.1459923874500500
  0.3311315979531729  0.3328494304922643  0.1536432234006389
  0.3090280204661402  0.6895312097332655  0.1849438186717615
  0.6694812748565497  0.6669214435028997  0.1551329777716963
  0.5202155670548322  0.4802067567176687  0.1658373636624209
  0.3952700355012183  0.6028658666704383  0.2305407313258396
 
  0.00000000E+00  0.00000000E+00  0.00000000E+00
  0.00000000E+00  0.00000000E+00  0.00000000E+00
  0.00000000E+00  0.00000000E+00  0.00000000E+00
  0.00000000E+00  0.00000000E+00  0.00000000E+00
  0.00000000E+00  0.00000000E+00  0.00000000E+00
  0.00000000E+00  0.00000000E+00  0.00000000E+00
  0.00000000E+00  0.00000000E+00  0.00000000E+00
  0.00000000E+00  0.00000000E+00  0.00000000E+00
  0.00000000E+00  0.00000000E+00  0.00000000E+00
  0.00000000E+00  0.00000000E+00  0.00000000E+00
  0.00000000E+00  0.00000000E+00  0.00000000E+00
  0.00000000E+00  0.00000000E+00  0.00000000E+00
  0.00000000E+00  0.00000000E+00  0.00000000E+00
  0.00000000E+00  0.00000000E+00  0.00000000E+00
  0.00000000E+00  0.00000000E+00  0.00000000E+00
  0.00000000E+00  0.00000000E+00  0.00000000E+00
  0.00000000E+00  0.00000000E+00  0.00000000E+00
  0.00000000E+00  0.00000000E+00  0.00000000E+00
  0.00000000E+00  0.00000000E+00  0.00000000E+00
  0.00000000E+00  0.00000000E+00  0.00000000E+00
  0.00000000E+00  0.00000000E+00  0.00000000E+00
  0.00000000E+00  0.00000000E+00  0.00000000E+00
  0.00000000E+00  0.00000000E+00  0.00000000E+00
  0.00000000E+00  0.00000000E+00  0.00000000E+00
  0.00000000E+00  0.00000000E+00  0.00000000E+00
  0.00000000E+00  0.00000000E+00  0.00000000E+00
