C  N  H  Cu O                           
   1.00000000000000     
    11.1029153023801186  -19.2338042452836575    0.0029768331959390
    11.1028064668630044   19.2337413553495509    0.0039341571825775
     0.0047130301019369    0.0003735853447813   14.2252669409466534
   C    N    H    Cu   O 
   194     8    16     1     3
Direct
  0.9997912395109073  0.9997781822702386  0.1195021808262067
  0.0368645185665236  0.0738723265722985  0.1188158302950859
  0.9998056262882703  0.1108992760444123  0.1184072718047777
  0.0368688718009611  0.1849854955226584  0.1170455402527522
  0.9998201654783340  0.2220169705697964  0.1162438704427259
  0.0368748059790962  0.2960980540751012  0.1143932204348989
  0.9998191192276816  0.3331212043148687  0.1135545298988808
  0.0368846439795493  0.4072018828675030  0.1120597450002305
  0.9998062526292051  0.4442172611188843  0.1121176476293907
  0.0368612851129695  0.5182985048953886  0.1120488641225315
  0.9997924391858488  0.5553208956376264  0.1130439226046374
  0.0368314463935123  0.6293958579134233  0.1141704866365730
  0.9997701538565303  0.6664150454864239  0.1156394945691833
  0.0368111344189420  0.7404910773319141  0.1170163372030752
  0.9997606332012563  0.7775229049320291  0.1182592372593519
  0.0368122812564837  0.8516093423692838  0.1190768217234436
  0.9997726320085837  0.8886489265582238  0.1195560270402918
  0.0368385264922376  0.9627466735274786  0.1195893035367526
  0.1109328195351060  0.9998251856881670  0.1187508193227934
  0.1480008661379886  0.0739091675784706  0.1172108117711859
  0.1109597842851597  0.1109376133622561  0.1174311365906551
  0.1480052988050796  0.1850060920966029  0.1155705865460438
  0.1109603059612229  0.2220337672668116  0.1157294588769453
  0.1480058982358693  0.2961104714512762  0.1140007351997157
  0.1109640875114332  0.3331518759292083  0.1132480005969737
  0.1480100535327284  0.4072136720324733  0.1112912534616671
  0.1109775122772702  0.4442380892473640  0.1108736884660430
  0.1480323468225890  0.5183090107007680  0.1103606834676057
  0.1109598726623284  0.5553160344946257  0.1115103160382712
  0.1479787097981008  0.6293922297675517  0.1127751904281190
  0.1109190313636486  0.6664240254121010  0.1141732529116497
  0.1479445592916742  0.7405009077336764  0.1156218949106792
  0.1108966375666100  0.7775348300592073  0.1169062603345844
  0.1479379016825128  0.8516205794542699  0.1178427870761422
  0.1109041555248359  0.8886700413287733  0.1187319123532026
  0.1479552452834650  0.9627624645137384  0.1185169002747268
  0.2220395383297030  0.9998375694685837  0.1173503483515926
  0.2590630120165096  0.0739156326814910  0.1155970270205830
  0.2220542781488315  0.1109581503582599  0.1151480569605878
  0.2590688569881008  0.1849961247732099  0.1133757678443397
  0.2220488229233082  0.2220350318315741  0.1135886469484782
  0.2590450130934973  0.2960797134084878  0.1129918767140351
  0.2220545288279698  0.3331360440451638  0.1131049287416238
  0.2590589830325746  0.4071900993542975  0.1126736118831725
  0.2220789736016117  0.4442433892538161  0.1112909641131762
  0.2591043987243021  0.5182999993915554  0.1113469258862175
  0.2220875190235474  0.5553249568210382  0.1105832295996121
  0.2590970623795213  0.6293642305824926  0.1120911138037101
  0.2220675661657912  0.6664037635699042  0.1131097558724063
  0.2590693631587594  0.7404813508207374  0.1149861893441958
  0.2220275268060515  0.7775324018755160  0.1158973200656550
  0.2590562594983533  0.8516155678223324  0.1169350402186544
  0.2220179997892265  0.8886693555219185  0.1175499504622529
  0.2590540677784747  0.9627627468290378  0.1174156515404164
  0.3331341048994761  0.9998085027922556  0.1168335956837699
  0.3701481268257876  0.0738975697983007  0.1156653046794202
  0.3331187452177411  0.1109567798764217  0.1145852139983228
  0.3701341578675791  0.1850066633864392  0.1129896826455819
  0.3330952061148491  0.2220171937122170  0.1124638687407201
  0.3701415788271170  0.2960875614044293  0.1127747881490776
  0.3331084709222014  0.3331121348074765  0.1133606049043091
  0.3701309984028263  0.4071650435532319  0.1152516251493739
  0.3331135948455623  0.4442089632708657  0.1146490854141317
  0.3701372098953644  0.5182685905989856  0.1157869103124349
  0.3331183603521515  0.5552979824617337  0.1138500466299700
  0.3701734148061521  0.6293488044668648  0.1147669930133821
  0.3331396520745823  0.6663726000439222  0.1139812413956252
  0.3701623466518603  0.7404351913879863  0.1156058249263930
  0.3331442297325013  0.7775130887904853  0.1158693119957513
  0.3701659589662084  0.8515968921776743  0.1168031858853232
  0.3331345631037543  0.8886552407519116  0.1170363674676583
  0.3701626904252908  0.9627467160156327  0.1170306760735762
  0.4442346283827371  0.9997831566953355  0.1167338612274562
  0.4812538654483865  0.0738682733847340  0.1158542621491429
  0.4442254501846254  0.1109315494253457  0.1151250655972678
  0.4812387107810730  0.1850198457075252  0.1136227573447321
  0.4442013256187677  0.2220542647194746  0.1127648553389140
  0.4812577390037354  0.2961156193756861  0.1123453125988402
  0.4442079935542596  0.3331187860284318  0.1132402520206511
  0.4812324628835614  0.4071322345171469  0.1157196755420864
  0.4441769940231631  0.4441465142453451  0.1173783426145533
  0.4812149518888507  0.5182152529239402  0.1191421337368438
  0.4441880475232262  0.5552762789283967  0.1180817126727522
  0.4812597122983460  0.6293363878828729  0.1173516721544542
  0.4442062517209263  0.6663472829162426  0.1162859978826589
  0.4812747504146044  0.7404155056168998  0.1160705290832072
  0.4442472722024367  0.7774691626539098  0.1163753653703468
  0.4812699122296079  0.8515643995103984  0.1167647639453313
  0.4442447801764541  0.8886323440531321  0.1170229147227913
  0.4812663146504262  0.9627196708567716  0.1169428749495840
  0.5553381397895014  0.9997532135165382  0.1167032758091728
  0.5923646851536574  0.0738442072486866  0.1160510171819460
  0.5553313430457436  0.1109018833248958  0.1153468345131814
  0.5923475726139693  0.1849830689569358  0.1138585423487836
  0.5553232627281677  0.2220548559315527  0.1128432859946127
  0.5923499092157971  0.2961194248718040  0.1113630463004883
  0.5552904763534824  0.3331211093388138  0.1119286921448411
  0.5923533593553466  0.4071647342698273  0.1132281096129683
  0.5553076565971216  0.4441563334988395  0.1158460545968653
  0.5923549691620094  0.5182030621978219  0.1177076131064502
  0.5553278753057532  0.5552530921659734  0.1190651094937501
  0.5923542780928145  0.6293238704442068  0.1175166663539174
  0.5553179453512085  0.6663513192287505  0.1165324227181217
  0.5923715713825876  0.7404005196103099  0.1143018797924983
  0.5553485042201115  0.7774337791839113  0.1149718746607749
  0.5923671246660946  0.8515097415089348  0.1150454641442815
  0.5553464258543517  0.8885901845538859  0.1163412082632225
  0.5923641077305406  0.9626853249868529  0.1165709542070749
  0.6664420411105574  0.9997264720133993  0.1164105670725922
  0.7034779782148105  0.0738236967569721  0.1164079545271490
  0.6664401188043906  0.1108801568753196  0.1158225493180643
  0.7034676967992473  0.1849657455113958  0.1146914302931548
  0.6664278104922629  0.2220193447835632  0.1134079791490484
  0.7034319860527242  0.2961020069785517  0.1118552293385642
  0.6664066216637794  0.3331414215863377  0.1107173245317520
  0.7034367338345824  0.4071879888373979  0.1110302740063066
  0.6664042560505814  0.4441898464226492  0.1128038018816562
  0.7034302274078776  0.5182259536597046  0.1148383246022549
  0.6664112091753336  0.5552447464705124  0.1168415103059795
  0.7034134562633320  0.6293128979756251  0.1170443852191583
  0.6664088735330342  0.6663554744005062  0.1161450264091939
  0.7034077563866481  0.7403935959682808  0.1142428781853782
  0.6663906181565548  0.7774154713704315  0.1130367037920090
  0.7034237148315022  0.8514770493254258  0.1132955188905716
  0.6664297599825185  0.8885482576045253  0.1143437599583722
  0.7034562390448222  0.9626463106246069  0.1158115823130269
  0.7775379458010848  0.9997237829970910  0.1166528941000110
  0.8145888981554227  0.0738192474022345  0.1171618841171948
  0.7775563391232465  0.1108708620188543  0.1165177762478414
  0.8145991150180882  0.1849606991260906  0.1157193286402767
  0.7775516331498410  0.2219979261070079  0.1146030131990360
  0.8145782281310070  0.2960797026058479  0.1134564271081567
  0.7775194659222906  0.3331167057618392  0.1122914129341692
  0.8145474913678001  0.4071958578245880  0.1119074106226728
  0.7774827305328262  0.4442051111349378  0.1116113180379456
  0.8145297269306159  0.5182522232264172  0.1133114188222936
  0.7774859102252549  0.5552596592039103  0.1148780473271884
  0.8145266085291467  0.6293218870949538  0.1166458035310949
  0.7774782199132302  0.6663537088820654  0.1171638083712332
  0.8145186419253152  0.7404418570927115  0.1172271105982432
  0.7774678677740871  0.7774499222509218  0.1155347891243633
  0.8145272760966967  0.8515294170420850  0.1161399055754617
  0.7774873496084340  0.8885605291104559  0.1150473257619060
  0.8145528855879057  0.9626481121946443  0.1167701468889999
  0.8886458390308256  0.9997350809712868  0.1183131190081573
  0.9257123066213905  0.0738361237138599  0.1184343210797903
  0.8886777881686482  0.1108792659923207  0.1176158711573776
  0.9257316119004660  0.1849668473553836  0.1167080019587207
  0.8886830325256124  0.2220019549231507  0.1156186452027013
  0.9257261494049984  0.2960798598285714  0.1142420631682688
  0.8886687234704983  0.3331060644547579  0.1133575701530990
  0.9257123082695417  0.4071843584460810  0.1125841230658932
  0.8886436757902116  0.4442083990294862  0.1124424612506596
  0.9256987134972021  0.5182858029326686  0.1130512958931313
  0.8886145590955278  0.5552907540194887  0.1139838298271093
  0.9256774780458940  0.6293680185795304  0.1156047332101546
  0.8886186737490500  0.6663840613271386  0.1169111846738507
  0.9256710769911441  0.7404683894267936  0.1181155530197438
  0.8886165162235553  0.7774979875239849  0.1183349030616593
  0.9256781607220339  0.8515842334097597  0.1189740823919132
  0.8886141649064258  0.8886057098933111  0.1182894045523570
  0.9256887606356187  0.9627029827945792  0.1189670726097912
  0.2653030790543430  0.1292153226040765  0.3521881184949174
  0.3346758534445960  0.1828816449413981  0.3477871440816499
  0.3477162842161548  0.2511816130745752  0.3427322816524724
  0.2920346356177203  0.2655300643270704  0.3420724106883201
  0.2229679997547508  0.2118029980737105  0.3466093983558702
  0.2102268251238669  0.1434514112780116  0.3517344060845621
  0.3236841873140927  0.3414932549250301  0.3382106870779165
  0.4124177221163665  0.3187416641595462  0.3392207853700710
  0.3191925023688651  0.4452579710445263  0.3458349301669882
  0.3972682535727060  0.5602240288825369  0.3627356521172450
  0.2793512183313280  0.4814949299423824  0.3462387071452909
  0.3281360957131459  0.5533104884191382  0.3554115077233321
  0.3065798619483999  0.6026159123800524  0.3547490091955464
  0.2353618863435524  0.5786256426752104  0.3458750750103047
  0.1867762049263256  0.5070928461795675  0.3381897076211758
  0.2082481275631402  0.4576407998482943  0.3380063422005806
  0.5342543644456214  0.3903336167275633  0.3472508603382234
  0.6102105172108410  0.5059538107261393  0.3632109495859864
  0.6275260449749648  0.3513533831511395  0.3400287492040590
  0.6993918151269725  0.3774047373735487  0.3400637130884469
  0.7465805523425294  0.4492857095887348  0.3473803256264322
  0.7232215856335891  0.4970489658307188  0.3558518438976958
  0.6515012694263133  0.4711757705582733  0.3564764136936496
  0.6041039560457502  0.3989522855521427  0.3478471083554966
  0.6108109720034856  0.6134184159004016  0.3750472327122580
  0.5196470730485701  0.6367945214592121  0.3753945476884892
  0.6398580011223945  0.6874777792369727  0.3554187950209176
  0.7082438802174440  0.7406989973586341  0.3416926698914661
  0.7207947318765557  0.8088716604699274  0.3331965306462037
  0.6658210504694041  0.8230649831868755  0.3334610059100245
  0.5966087734457431  0.7695408162220523  0.3424083421772560
  0.5838597029790790  0.7019077217609037  0.3557477956039046
  0.3947864638943951  0.3699305234302491  0.3354714860697923
  0.2890876140979448  0.3760603551240110  0.3399886214320791
  0.3891631349897233  0.4938993793318558  0.3551110910798476
  0.4764993569089693  0.3281370952399775  0.3417570057553982
  0.5401811781053614  0.4552698979065526  0.3558136633998331
  0.6410107889930872  0.5752956265361183  0.3683361854776988
  0.5416472862765744  0.5898844065995311  0.3993987427110118
  0.4546143056985158  0.6228380574231818  0.3685111138655676
  0.2535586250467845  0.0753598858273912  0.3556952755050524
  0.3774142128145422  0.1720666913488490  0.3480204469385769
  0.1806000263097545  0.2231658922331703  0.3458439120337265
  0.1568124820163734  0.1004005296449171  0.3548427807693664
  0.3444406041134342  0.6578650774013836  0.3601836659531260
  0.2170273818243644  0.6158988618168940  0.3438341000065643
  0.1317486534457130  0.4902837792657679  0.3307072471978501
  0.1712366090650541  0.4023346689582802  0.3305118076782275
  0.5907081958543998  0.2959693097720389  0.3328682604495177
  0.7193668112784799  0.3417046797964725  0.3325905854580381
  0.8022492503020289  0.4679184995925443  0.3454235441515272
  0.7593797169457439  0.5527425934044731  0.3609649261988065
  0.7505454652592241  0.7292697276201482  0.3398912275828205
  0.7739780913483156  0.8515240952636176  0.3250079098050788
  0.6772121927068617  0.8765585282995347  0.3257187380698467
  0.5537940758752987  0.7802070539009995  0.3413848632610432
  0.4578168130110588  0.4643293731653518  0.3642534865362013
  0.5056052777720373  0.5360721335188173  0.4562242483995998
  0.4396478787651319  0.4302169934614952  0.6040015829463073
  0.4131155116624306  0.4630072378734704  0.6382890811839562
 
  0.00000000E+00  0.00000000E+00  0.00000000E+00
  0.00000000E+00  0.00000000E+00  0.00000000E+00
  0.00000000E+00  0.00000000E+00  0.00000000E+00
  0.00000000E+00  0.00000000E+00  0.00000000E+00
  0.00000000E+00  0.00000000E+00  0.00000000E+00
  0.00000000E+00  0.00000000E+00  0.00000000E+00
  0.00000000E+00  0.00000000E+00  0.00000000E+00
  0.00000000E+00  0.00000000E+00  0.00000000E+00
  0.00000000E+00  0.00000000E+00  0.00000000E+00
  0.00000000E+00  0.00000000E+00  0.00000000E+00
  0.00000000E+00  0.00000000E+00  0.00000000E+00
  0.00000000E+00  0.00000000E+00  0.00000000E+00
  0.00000000E+00  0.00000000E+00  0.00000000E+00
  0.00000000E+00  0.00000000E+00  0.00000000E+00
  0.00000000E+00  0.00000000E+00  0.00000000E+00
  0.00000000E+00  0.00000000E+00  0.00000000E+00
  0.00000000E+00  0.00000000E+00  0.00000000E+00
  0.00000000E+00  0.00000000E+00  0.00000000E+00
  0.00000000E+00  0.00000000E+00  0.00000000E+00
  0.00000000E+00  0.00000000E+00  0.00000000E+00
  0.00000000E+00  0.00000000E+00  0.00000000E+00
  0.00000000E+00  0.00000000E+00  0.00000000E+00
  0.00000000E+00  0.00000000E+00  0.00000000E+00
  0.00000000E+00  0.00000000E+00  0.00000000E+00
  0.00000000E+00  0.00000000E+00  0.00000000E+00
  0.00000000E+00  0.00000000E+00  0.00000000E+00
  0.00000000E+00  0.00000000E+00  0.00000000E+00
  0.00000000E+00  0.00000000E+00  0.00000000E+00
  0.00000000E+00  0.00000000E+00  0.00000000E+00
  0.00000000E+00  0.00000000E+00  0.00000000E+00
  0.00000000E+00  0.00000000E+00  0.00000000E+00
  0.00000000E+00  0.00000000E+00  0.00000000E+00
  0.00000000E+00  0.00000000E+00  0.00000000E+00
  0.00000000E+00  0.00000000E+00  0.00000000E+00
  0.00000000E+00  0.00000000E+00  0.00000000E+00
  0.00000000E+00  0.00000000E+00  0.00000000E+00
  0.00000000E+00  0.00000000E+00  0.00000000E+00
  0.00000000E+00  0.00000000E+00  0.00000000E+00
  0.00000000E+00  0.00000000E+00  0.00000000E+00
  0.00000000E+00  0.00000000E+00  0.00000000E+00
  0.00000000E+00  0.00000000E+00  0.00000000E+00
  0.00000000E+00  0.00000000E+00  0.00000000E+00
  0.00000000E+00  0.00000000E+00  0.00000000E+00
  0.00000000E+00  0.00000000E+00  0.00000000E+00
  0.00000000E+00  0.00000000E+00  0.00000000E+00
  0.00000000E+00  0.00000000E+00  0.00000000E+00
  0.00000000E+00  0.00000000E+00  0.00000000E+00
  0.00000000E+00  0.00000000E+00  0.00000000E+00
  0.00000000E+00  0.00000000E+00  0.00000000E+00
  0.00000000E+00  0.00000000E+00  0.00000000E+00
  0.00000000E+00  0.00000000E+00  0.00000000E+00
  0.00000000E+00  0.00000000E+00  0.00000000E+00
  0.00000000E+00  0.00000000E+00  0.00000000E+00
  0.00000000E+00  0.00000000E+00  0.00000000E+00
  0.00000000E+00  0.00000000E+00  0.00000000E+00
  0.00000000E+00  0.00000000E+00  0.00000000E+00
  0.00000000E+00  0.00000000E+00  0.00000000E+00
  0.00000000E+00  0.00000000E+00  0.00000000E+00
  0.00000000E+00  0.00000000E+00  0.00000000E+00
  0.00000000E+00  0.00000000E+00  0.00000000E+00
  0.00000000E+00  0.00000000E+00  0.00000000E+00
  0.00000000E+00  0.00000000E+00  0.00000000E+00
  0.00000000E+00  0.00000000E+00  0.00000000E+00
  0.00000000E+00  0.00000000E+00  0.00000000E+00
  0.00000000E+00  0.00000000E+00  0.00000000E+00
  0.00000000E+00  0.00000000E+00  0.00000000E+00
  0.00000000E+00  0.00000000E+00  0.00000000E+00
  0.00000000E+00  0.00000000E+00  0.00000000E+00
  0.00000000E+00  0.00000000E+00  0.00000000E+00
  0.00000000E+00  0.00000000E+00  0.00000000E+00
  0.00000000E+00  0.00000000E+00  0.00000000E+00
  0.00000000E+00  0.00000000E+00  0.00000000E+00
  0.00000000E+00  0.00000000E+00  0.00000000E+00
  0.00000000E+00  0.00000000E+00  0.00000000E+00
  0.00000000E+00  0.00000000E+00  0.00000000E+00
  0.00000000E+00  0.00000000E+00  0.00000000E+00
  0.00000000E+00  0.00000000E+00  0.00000000E+00
  0.00000000E+00  0.00000000E+00  0.00000000E+00
  0.00000000E+00  0.00000000E+00  0.00000000E+00
  0.00000000E+00  0.00000000E+00  0.00000000E+00
  0.00000000E+00  0.00000000E+00  0.00000000E+00
  0.00000000E+00  0.00000000E+00  0.00000000E+00
  0.00000000E+00  0.00000000E+00  0.00000000E+00
  0.00000000E+00  0.00000000E+00  0.00000000E+00
  0.00000000E+00  0.00000000E+00  0.00000000E+00
  0.00000000E+00  0.00000000E+00  0.00000000E+00
  0.00000000E+00  0.00000000E+00  0.00000000E+00
  0.00000000E+00  0.00000000E+00  0.00000000E+00
  0.00000000E+00  0.00000000E+00  0.00000000E+00
  0.00000000E+00  0.00000000E+00  0.00000000E+00
  0.00000000E+00  0.00000000E+00  0.00000000E+00
  0.00000000E+00  0.00000000E+00  0.00000000E+00
  0.00000000E+00  0.00000000E+00  0.00000000E+00
  0.00000000E+00  0.00000000E+00  0.00000000E+00
  0.00000000E+00  0.00000000E+00  0.00000000E+00
  0.00000000E+00  0.00000000E+00  0.00000000E+00
  0.00000000E+00  0.00000000E+00  0.00000000E+00
  0.00000000E+00  0.00000000E+00  0.00000000E+00
  0.00000000E+00  0.00000000E+00  0.00000000E+00
  0.00000000E+00  0.00000000E+00  0.00000000E+00
  0.00000000E+00  0.00000000E+00  0.00000000E+00
  0.00000000E+00  0.00000000E+00  0.00000000E+00
  0.00000000E+00  0.00000000E+00  0.00000000E+00
  0.00000000E+00  0.00000000E+00  0.00000000E+00
  0.00000000E+00  0.00000000E+00  0.00000000E+00
  0.00000000E+00  0.00000000E+00  0.00000000E+00
  0.00000000E+00  0.00000000E+00  0.00000000E+00
  0.00000000E+00  0.00000000E+00  0.00000000E+00
  0.00000000E+00  0.00000000E+00  0.00000000E+00
  0.00000000E+00  0.00000000E+00  0.00000000E+00
  0.00000000E+00  0.00000000E+00  0.00000000E+00
  0.00000000E+00  0.00000000E+00  0.00000000E+00
  0.00000000E+00  0.00000000E+00  0.00000000E+00
  0.00000000E+00  0.00000000E+00  0.00000000E+00
  0.00000000E+00  0.00000000E+00  0.00000000E+00
  0.00000000E+00  0.00000000E+00  0.00000000E+00
  0.00000000E+00  0.00000000E+00  0.00000000E+00
  0.00000000E+00  0.00000000E+00  0.00000000E+00
  0.00000000E+00  0.00000000E+00  0.00000000E+00
  0.00000000E+00  0.00000000E+00  0.00000000E+00
  0.00000000E+00  0.00000000E+00  0.00000000E+00
  0.00000000E+00  0.00000000E+00  0.00000000E+00
  0.00000000E+00  0.00000000E+00  0.00000000E+00
  0.00000000E+00  0.00000000E+00  0.00000000E+00
  0.00000000E+00  0.00000000E+00  0.00000000E+00
  0.00000000E+00  0.00000000E+00  0.00000000E+00
  0.00000000E+00  0.00000000E+00  0.00000000E+00
  0.00000000E+00  0.00000000E+00  0.00000000E+00
  0.00000000E+00  0.00000000E+00  0.00000000E+00
  0.00000000E+00  0.00000000E+00  0.00000000E+00
  0.00000000E+00  0.00000000E+00  0.00000000E+00
  0.00000000E+00  0.00000000E+00  0.00000000E+00
  0.00000000E+00  0.00000000E+00  0.00000000E+00
  0.00000000E+00  0.00000000E+00  0.00000000E+00
  0.00000000E+00  0.00000000E+00  0.00000000E+00
  0.00000000E+00  0.00000000E+00  0.00000000E+00
  0.00000000E+00  0.00000000E+00  0.00000000E+00
  0.00000000E+00  0.00000000E+00  0.00000000E+00
  0.00000000E+00  0.00000000E+00  0.00000000E+00
  0.00000000E+00  0.00000000E+00  0.00000000E+00
  0.00000000E+00  0.00000000E+00  0.00000000E+00
  0.00000000E+00  0.00000000E+00  0.00000000E+00
  0.00000000E+00  0.00000000E+00  0.00000000E+00
  0.00000000E+00  0.00000000E+00  0.00000000E+00
  0.00000000E+00  0.00000000E+00  0.00000000E+00
  0.00000000E+00  0.00000000E+00  0.00000000E+00
  0.00000000E+00  0.00000000E+00  0.00000000E+00
  0.00000000E+00  0.00000000E+00  0.00000000E+00
  0.00000000E+00  0.00000000E+00  0.00000000E+00
  0.00000000E+00  0.00000000E+00  0.00000000E+00
  0.00000000E+00  0.00000000E+00  0.00000000E+00
  0.00000000E+00  0.00000000E+00  0.00000000E+00
  0.00000000E+00  0.00000000E+00  0.00000000E+00
  0.00000000E+00  0.00000000E+00  0.00000000E+00
  0.00000000E+00  0.00000000E+00  0.00000000E+00
  0.00000000E+00  0.00000000E+00  0.00000000E+00
  0.00000000E+00  0.00000000E+00  0.00000000E+00
  0.00000000E+00  0.00000000E+00  0.00000000E+00
  0.00000000E+00  0.00000000E+00  0.00000000E+00
  0.00000000E+00  0.00000000E+00  0.00000000E+00
  0.00000000E+00  0.00000000E+00  0.00000000E+00
  0.00000000E+00  0.00000000E+00  0.00000000E+00
  0.00000000E+00  0.00000000E+00  0.00000000E+00
  0.00000000E+00  0.00000000E+00  0.00000000E+00
  0.00000000E+00  0.00000000E+00  0.00000000E+00
  0.00000000E+00  0.00000000E+00  0.00000000E+00
  0.00000000E+00  0.00000000E+00  0.00000000E+00
  0.00000000E+00  0.00000000E+00  0.00000000E+00
  0.00000000E+00  0.00000000E+00  0.00000000E+00
  0.00000000E+00  0.00000000E+00  0.00000000E+00
  0.00000000E+00  0.00000000E+00  0.00000000E+00
  0.00000000E+00  0.00000000E+00  0.00000000E+00
  0.00000000E+00  0.00000000E+00  0.00000000E+00
  0.00000000E+00  0.00000000E+00  0.00000000E+00
  0.00000000E+00  0.00000000E+00  0.00000000E+00
  0.00000000E+00  0.00000000E+00  0.00000000E+00
  0.00000000E+00  0.00000000E+00  0.00000000E+00
  0.00000000E+00  0.00000000E+00  0.00000000E+00
  0.00000000E+00  0.00000000E+00  0.00000000E+00
  0.00000000E+00  0.00000000E+00  0.00000000E+00
  0.00000000E+00  0.00000000E+00  0.00000000E+00
  0.00000000E+00  0.00000000E+00  0.00000000E+00
  0.00000000E+00  0.00000000E+00  0.00000000E+00
  0.00000000E+00  0.00000000E+00  0.00000000E+00
  0.00000000E+00  0.00000000E+00  0.00000000E+00
  0.00000000E+00  0.00000000E+00  0.00000000E+00
  0.00000000E+00  0.00000000E+00  0.00000000E+00
  0.00000000E+00  0.00000000E+00  0.00000000E+00
  0.00000000E+00  0.00000000E+00  0.00000000E+00
  0.00000000E+00  0.00000000E+00  0.00000000E+00
  0.00000000E+00  0.00000000E+00  0.00000000E+00
  0.00000000E+00  0.00000000E+00  0.00000000E+00
  0.00000000E+00  0.00000000E+00  0.00000000E+00
  0.00000000E+00  0.00000000E+00  0.00000000E+00
  0.00000000E+00  0.00000000E+00  0.00000000E+00
  0.00000000E+00  0.00000000E+00  0.00000000E+00
  0.00000000E+00  0.00000000E+00  0.00000000E+00
  0.00000000E+00  0.00000000E+00  0.00000000E+00
  0.00000000E+00  0.00000000E+00  0.00000000E+00
  0.00000000E+00  0.00000000E+00  0.00000000E+00
  0.00000000E+00  0.00000000E+00  0.00000000E+00
  0.00000000E+00  0.00000000E+00  0.00000000E+00
  0.00000000E+00  0.00000000E+00  0.00000000E+00
  0.00000000E+00  0.00000000E+00  0.00000000E+00
  0.00000000E+00  0.00000000E+00  0.00000000E+00
  0.00000000E+00  0.00000000E+00  0.00000000E+00
  0.00000000E+00  0.00000000E+00  0.00000000E+00
  0.00000000E+00  0.00000000E+00  0.00000000E+00
  0.00000000E+00  0.00000000E+00  0.00000000E+00
  0.00000000E+00  0.00000000E+00  0.00000000E+00
  0.00000000E+00  0.00000000E+00  0.00000000E+00
  0.00000000E+00  0.00000000E+00  0.00000000E+00
  0.00000000E+00  0.00000000E+00  0.00000000E+00
  0.00000000E+00  0.00000000E+00  0.00000000E+00
  0.00000000E+00  0.00000000E+00  0.00000000E+00
  0.00000000E+00  0.00000000E+00  0.00000000E+00
  0.00000000E+00  0.00000000E+00  0.00000000E+00
  0.00000000E+00  0.00000000E+00  0.00000000E+00
  0.00000000E+00  0.00000000E+00  0.00000000E+00
  0.00000000E+00  0.00000000E+00  0.00000000E+00
  0.00000000E+00  0.00000000E+00  0.00000000E+00
  0.00000000E+00  0.00000000E+00  0.00000000E+00
