C  N  H  Cu O                           
   1.00000000000000     
    11.1535200114466004  -19.3193486123013223    0.0000000000000000
    11.1535200114466004   19.3193486123013223    0.0000000000000000
     0.0000000000000000    0.0000000000000000   16.0000000000000000
   C    N    H    Cu   O 
   206     4    28     1     1
Direct
  0.0000264391486109  0.9999960715950064  0.1118919365523129
  0.0370772396501868  0.0740796747260941  0.1117512780339543
  0.0000309951065713  0.1111122867198609  0.1119086372767172
  0.0370768783413149  0.1851924536160943  0.1118564123645127
  0.0000351177975340  0.2222274365636175  0.1121646252347728
  0.0370771413976862  0.2963024018569916  0.1121495598967458
  0.0000352647441982  0.3333366865140364  0.1123022624854540
  0.0370739505699706  0.4074106336369534  0.1122228900575192
  0.0000315916723731  0.4444447532363516  0.1122544287979593
  0.0370655391809974  0.5185177901788618  0.1122414961279608
  0.0000245218338963  0.5555526456055199  0.1123597352174510
  0.0370616157977532  0.6296262465529364  0.1124867163249928
  0.0000192820204307  0.6666609182118360  0.1125623957476839
  0.0370607967499664  0.7407357174479048  0.1126494623532067
  0.0000198481973735  0.7777710936229872  0.1124791082652067
  0.0370654419593593  0.8518499296009577  0.1124451405106995
  0.0000288169091407  0.8888877251034573  0.1121478389131663
  0.0370738076194052  0.9629672641800070  0.1120347273048002
  0.1111534007264032  0.0000122678841067  0.1121770135302364
  0.1482001858995532  0.0740899442227204  0.1119358054169271
  0.1111604194253060  0.1111205480234023  0.1115950588266636
  0.1482080911296259  0.1852000834012160  0.1114388049842139
  0.1111608619944450  0.2222308865744666  0.1115878455170281
  0.1482022798217230  0.2963106114989275  0.1117731755693020
  0.1111553508659651  0.3333397253060225  0.1119687571016845
  0.1481992185195340  0.4074152940798400  0.1119815656690532
  0.1111526101367144  0.4444454719879124  0.1120362937054930
  0.1481901321449740  0.5185201533612536  0.1118784435770816
  0.1111444578252729  0.5555526273502579  0.1120341327536019
  0.1481821839193918  0.6296277472682806  0.1120400647233853
  0.1111395678958404  0.6666647700023265  0.1123803409518349
  0.1481807044569056  0.7407413236869017  0.1125509165732463
  0.1111390008664319  0.7777776202040445  0.1127413643735320
  0.1481809591245697  0.8518547102835925  0.1128375174628281
  0.1111444341544802  0.8888945594872547  0.1126757490249027
  0.1481869639936526  0.9629724145661839  0.1125717077670747
  0.2222627845980705  0.0000163590557305  0.1127904564592274
  0.2593014729258805  0.0740936240047080  0.1126672625731229
  0.2222711720866268  0.1111344442520217  0.1122053685262963
  0.2593119042696616  0.1852049151779911  0.1121380779260550
  0.2222811848780016  0.2222340514114634  0.1117110298768815
  0.2593204717164729  0.2963082359702016  0.1120250899132468
  0.2222815692847092  0.3333472622968527  0.1119470171554884
  0.2593217890746216  0.4074218366190610  0.1122228596795136
  0.2222755080098801  0.4444457192008815  0.1120168042599990
  0.2593146981627547  0.5185204490298279  0.1119016613308805
  0.2222710485224524  0.5555555106344829  0.1116797148310749
  0.2593179077776497  0.6296328661556554  0.1115363971004913
  0.2222665108852812  0.6666660280347738  0.1117895086764131
  0.2593056212432313  0.7407445911362951  0.1120844328714110
  0.2222590686789140  0.7777798806317754  0.1124722809126334
  0.2592959149890085  0.8518561147854212  0.1127692182881031
  0.2222574168482081  0.8888955118771252  0.1129307598694002
  0.2592954064542847  0.9629737512527301  0.1130057814475153
  0.3333708633892704  0.0000121410147332  0.1130823643545695
  0.3704065887649670  0.0740904215854960  0.1130469177885757
  0.3333751222260772  0.1111347346106639  0.1128995604885555
  0.3704124860405857  0.1852092167179712  0.1128902147426812
  0.3333810413803449  0.2222455854520032  0.1126652283824965
  0.3704228105341260  0.2963116404426874  0.1129330048003634
  0.3333941527983661  0.3333485171672909  0.1127135368348262
  0.3704251286465616  0.4074183657427650  0.1130997397769835
  0.3333901135263295  0.4444522245524749  0.1127372657630358
  0.3704288600951977  0.5185222108765830  0.1127931178568802
  0.3333932516210942  0.5555603538295785  0.1121718980589662
  0.3704270050305976  0.6296351925645910  0.1120482985759098
  0.3333900662383272  0.6666680255565884  0.1116774502772588
  0.3704125706354904  0.7407312804425286  0.1120044799745086
  0.3333795322322058  0.7777709182855873  0.1121550368265717
  0.3704067195186562  0.8518475219234153  0.1125792905875978
  0.3333714414228218  0.8888893768073162  0.1128108506405369
  0.3704046359380316  0.9629680830868548  0.1130266001074551
  0.4444783177253880  0.0000051750190887  0.1129998196611915
  0.4815118775940901  0.0740845030740026  0.1128839725754918
  0.4444812296965547  0.1111297051344642  0.1129202782688880
  0.4815152337450879  0.1852075377807253  0.1127218995548170
  0.4444831424569960  0.2222482555858309  0.1128993570653598
  0.4815137355889899  0.2963129120366026  0.1129554606277123
  0.4444875434627787  0.3333484573139598  0.1132339313036580
  0.4815163695369737  0.4074119318889399  0.1134959053439518
  0.4444923762455554  0.4444524760761202  0.1135615667097926
  0.4815236567559062  0.5185186991167844  0.1136415454989575
  0.4444957904909961  0.5555579269715337  0.1132827461129446
  0.4815217881081545  0.6296238445061667  0.1131504045105311
  0.4444914848427358  0.6666585433911190  0.1126261250332255
  0.4815154340359407  0.7407243241429885  0.1127142988740938
  0.4444809072676500  0.7777607648448742  0.1124670288202709
  0.4815095456512596  0.8518357297435679  0.1127763482993084
  0.4444785130979524  0.8888812830803199  0.1127813547069184
  0.4815100291364116  0.9629593864028383  0.1129643712106850
  0.5555839885482744  0.9999967675088661  0.1129947773798752
  0.5926158983354158  0.0740753113155940  0.1127673182951522
  0.5555847728994623  0.1111211894007811  0.1126142835509469
  0.5926136570899164  0.1851964684503908  0.1121808334260674
  0.5555852961219320  0.2222400426422560  0.1122517665600603
  0.5926128668104710  0.2963083295591503  0.1119890887337616
  0.5555801336785379  0.3333412050945097  0.1125449201352142
  0.5926046218695366  0.4074087775464221  0.1126864112048793
  0.5555782168740034  0.4444486657024259  0.1133061430049787
  0.5926093514512949  0.5185120326386125  0.1133555467159729
  0.5555861464561872  0.5555529910710618  0.1135963325656772
  0.5926083779659149  0.6296163551668017  0.1133461004017917
  0.5555851835442414  0.6666537283078231  0.1132853092815007
  0.5926146161546014  0.7407171042419535  0.1130828427050701
  0.5555839411825677  0.7777548363863109  0.1130215449365372
  0.5926145778978622  0.8518282107598485  0.1130712276051655
  0.5555825654248363  0.8888727343131976  0.1130438831455423
  0.5926159787353438  0.9629516582102784  0.1130953363561310
  0.6666909833849397  0.9999898507333735  0.1130855822827001
  0.7037256381447925  0.0740677728826241  0.1128972342247508
  0.6666887602692064  0.1111086711935857  0.1126498131170473
  0.7037202402502091  0.1851861898619306  0.1122146083740538
  0.6666827606533441  0.2222250634430200  0.1118561858894778
  0.7037097211115561  0.2962952752594940  0.1114518513548137
  0.6666736725003979  0.3333307864498234  0.1114863595254450
  0.7037109227280149  0.4074010394738848  0.1116293304807718
  0.6666737103660735  0.4444437209709225  0.1121991099691117
  0.7037108924246711  0.5185183980498805  0.1124065613716777
  0.6666707190218384  0.5555414877879621  0.1128674331388390
  0.7037044842076025  0.6296140545764389  0.1126465634226830
  0.6666765623752039  0.6666569073629112  0.1128416421707523
  0.7037138799612223  0.7407238376409425  0.1124719562181479
  0.6666808662312724  0.7777552775941619  0.1127813277519656
  0.7037192847714296  0.8518265943368546  0.1127209545184812
  0.6666889045994854  0.8888691545823787  0.1130086005655965
  0.7037245389939130  0.9629464901879560  0.1130260077754096
  0.7777988196155109  0.9999864281145912  0.1128132560143699
  0.8148379911168403  0.0740644526341578  0.1127789170993255
  0.7778019012119332  0.1111044182233026  0.1127987739352098
  0.8148405010849562  0.1851810456779443  0.1125603921576843
  0.7777984538014631  0.2222180115824136  0.1122387532007775
  0.8148373941655521  0.2962940399285928  0.1119920023293166
  0.7777885447555816  0.3333296466429131  0.1116055924003178
  0.8148331486081489  0.4074102524679438  0.1117152755171711
  0.7777893413319333  0.4444435811691873  0.1117058904803559
  0.8148261376604407  0.5185189160994871  0.1120153002895636
  0.7777813356430168  0.5555484040977537  0.1121828892720078
  0.8148225221236871  0.6296193079494897  0.1122212799433421
  0.7777782533071077  0.6666510987268937  0.1122268343303656
  0.8148140040255295  0.7407317406193639  0.1119544159696817
  0.7777789544077437  0.7777639972113767  0.1119828930305097
  0.8148184597331010  0.8518308126254498  0.1119810295869070
  0.7777902005627925  0.8888680031904965  0.1123710080152282
  0.8148297321174170  0.9629431008509325  0.1124800437015796
  0.8889065991186338  0.9999904883431925  0.1122130386753140
  0.9259501824773962  0.0740689434795967  0.1122359933064523
  0.8889151092176891  0.1111081393421203  0.1125173241649208
  0.9259570708929332  0.1851847948311085  0.1124482198790789
  0.8889175543811402  0.2222220083990329  0.1125086149325694
  0.9259573085293502  0.2962975489552845  0.1123824495309449
  0.8889169375799514  0.3333341584545961  0.1122034228381416
  0.9259539128420359  0.4074092844534720  0.1121785079937226
  0.8889131299243059  0.4444452195494190  0.1120405404737772
  0.9259462801584338  0.5185176616579683  0.1122347314719378
  0.8889021886631039  0.5555500212777180  0.1122217676004020
  0.9259420443767583  0.6296234725608222  0.1123950720363789
  0.8888977279050735  0.6666542814306712  0.1122726526588210
  0.9259415586436804  0.7407299681725753  0.1122476388935802
  0.8888966006919924  0.7777637544556957  0.1119968389011404
  0.9259418891466690  0.8518453703075993  0.1119588162591310
  0.8888915305418722  0.8888738881549446  0.1119009870172924
  0.9259450111958086  0.9629565583994599  0.1119791434129518
  0.5098561944188793  0.3660196449372487  0.4231045697945084
  0.4685618392031594  0.2915121945823176  0.4137514622837095
  0.4004562364652690  0.2743270689276591  0.4187238564603213
  0.3984059135163567  0.3378512136571181  0.4320149934027464
  0.6241024934615258  0.4758896921610434  0.4215890804441848
  0.6992067425484013  0.5160231173595201  0.4262564020270554
  0.6541244387845770  0.5877854348765993  0.4212520102873077
  0.7176516394978878  0.5847704923536173  0.4260476812477461
  0.3548347229499967  0.5091616915414597  0.4395952200417651
  0.3239633243034964  0.3941290026873717  0.4398831082084023
  0.2830482996234271  0.4686285350085770  0.4155134947659980
  0.2644883797385590  0.3994760466029624  0.4156875790990313
  0.5857138780576079  0.6487708850958079  0.4223048002107255
  0.5810898231542156  0.7109672162436649  0.4126909386193345
  0.4733107558186413  0.6170495391878501  0.4312851851399450
  0.5123863468008542  0.6915493215383035  0.4177146874484026
  0.3997962050917804  0.5811824615468196  0.4356856345279537
  0.3342506803674223  0.3368876130893041  0.4362702679451367
  0.5831638999119741  0.4031871256639818  0.4218618971007237
  0.6202690389660860  0.3628154906014711  0.4224458447057834
  0.6623111920175446  0.3663770195332594  0.3549150218836862
  0.6152114218219008  0.3217048454517206  0.4917753686229153
  0.6982730417759174  0.3298927986944304  0.3565697722310174
  0.6515627633226493  0.2856296908380963  0.4937569014845922
  0.6932042637156219  0.2895571601642462  0.4261344759731375
  0.6488774442482893  0.6481250307315913  0.4211638166543432
  0.3643259749325792  0.6234164862702738  0.4303264103208319
  0.7150739568912529  0.7161456828881893  0.4216719567015508
  0.2689036617290085  0.2676467484497553  0.4308829042305634
  0.3266025279907362  0.6217846626445311  0.3591071796501346
  0.7616207862183179  0.7362685283992263  0.3541982287230969
  0.2263409161109602  0.2478455002697161  0.3596180666068831
  0.3662088961883815  0.6636504983563055  0.4990161843979711
  0.7329578868086303  0.7607034774320621  0.4909948096704207
  0.2478259841367898  0.2221352993982590  0.4994358201770357
  0.2906362111898402  0.6583130608555995  0.3572424856331906
  0.8242361613922902  0.7991438917540541  0.3558898699188050
  0.1637532656535156  0.1848749289510890  0.3575691424106600
  0.3307862177213787  0.7006534063763579  0.4969279611383133
  0.7957960188718340  0.8233127076522403  0.4930416143259570
  0.1856055526257282  0.1589097333426022  0.4971567134890725
  0.2924198470657025  0.6977029026187180  0.4262610648972665
  0.8416513353530090  0.8427860453364033  0.4254616703893735
  0.1430644349871310  0.1402725727199218  0.4264436503104684
  0.4665071394829519  0.3933686881244243  0.4327479054113743
  0.3751034942162750  0.4612304327014127  0.4597108904023499
  0.5987020801226293  0.5210173753200894  0.4186311196540306
  0.5198555049267154  0.5922154494265303  0.4321400892853650
  0.4892459845669859  0.2572983646885004  0.4030829557689318
  0.3552267329117845  0.2232776224961322  0.4124211606356967
  0.7331253816325889  0.4943740309339724  0.4303203753084496
  0.7693409273455123  0.6293427971578257  0.4299005110871869
  0.2513649444706924  0.4902522437251696  0.3958765505574397
  0.2153739479128299  0.3561864906636316  0.3962214701217628
  0.6247423847357930  0.7623774287171434  0.4018406420197033
  0.4896533897927153  0.7243912099583915  0.4112940043344810
  0.6663159478942002  0.3975630850590925  0.3005518779851084
  0.5833263110800950  0.3189274023680876  0.5449083196446659
  0.7302064241484498  0.3328735496608511  0.3033586509794363
  0.6476350371004231  0.2546022091187417  0.5484226721386000
  0.3253973564483544  0.5917781839839085  0.3047663569012452
  0.7482753559035794  0.7025536743426921  0.2998544980466546
  0.2423066181437987  0.2818861019086485  0.3053619748002548
  0.3954055028492505  0.6655273630136573  0.5545491806639465
  0.6976985432788475  0.7455212723314205  0.5440808009707622
  0.2804151907195850  0.2367261141340439  0.5549984633706211
  0.2612114096629415  0.6560064940657061  0.3017010854692673
  0.8594344853895463  0.8141064401558087  0.3027224056834857
  0.1311816966043771  0.1706393548207615  0.3019722569150102
  0.3328504561821487  0.7315651498869605  0.5508707788946966
  0.8091558466217618  0.8568583942963157  0.5477205904702988
  0.1701499774695234  0.1242809195268504  0.5509771187708169
  0.2642014500251437  0.7259605618543232  0.4249951716545228
  0.7214964599089452  0.2613784526856563  0.4276879797869730
  0.0942079279251792  0.0913012061300525  0.4250153490449473
  0.8906177063386934  0.8916423396627381  0.4270610549187535
  0.5045315031648254  0.4958506351079142  0.4431502868363251
  0.4267889765746847  0.4751459318105876  0.5127841966824618
 
  0.00000000E+00  0.00000000E+00  0.00000000E+00
  0.00000000E+00  0.00000000E+00  0.00000000E+00
  0.00000000E+00  0.00000000E+00  0.00000000E+00
  0.00000000E+00  0.00000000E+00  0.00000000E+00
  0.00000000E+00  0.00000000E+00  0.00000000E+00
  0.00000000E+00  0.00000000E+00  0.00000000E+00
  0.00000000E+00  0.00000000E+00  0.00000000E+00
  0.00000000E+00  0.00000000E+00  0.00000000E+00
  0.00000000E+00  0.00000000E+00  0.00000000E+00
  0.00000000E+00  0.00000000E+00  0.00000000E+00
  0.00000000E+00  0.00000000E+00  0.00000000E+00
  0.00000000E+00  0.00000000E+00  0.00000000E+00
  0.00000000E+00  0.00000000E+00  0.00000000E+00
  0.00000000E+00  0.00000000E+00  0.00000000E+00
  0.00000000E+00  0.00000000E+00  0.00000000E+00
  0.00000000E+00  0.00000000E+00  0.00000000E+00
  0.00000000E+00  0.00000000E+00  0.00000000E+00
  0.00000000E+00  0.00000000E+00  0.00000000E+00
  0.00000000E+00  0.00000000E+00  0.00000000E+00
  0.00000000E+00  0.00000000E+00  0.00000000E+00
  0.00000000E+00  0.00000000E+00  0.00000000E+00
  0.00000000E+00  0.00000000E+00  0.00000000E+00
  0.00000000E+00  0.00000000E+00  0.00000000E+00
  0.00000000E+00  0.00000000E+00  0.00000000E+00
  0.00000000E+00  0.00000000E+00  0.00000000E+00
  0.00000000E+00  0.00000000E+00  0.00000000E+00
  0.00000000E+00  0.00000000E+00  0.00000000E+00
  0.00000000E+00  0.00000000E+00  0.00000000E+00
  0.00000000E+00  0.00000000E+00  0.00000000E+00
  0.00000000E+00  0.00000000E+00  0.00000000E+00
  0.00000000E+00  0.00000000E+00  0.00000000E+00
  0.00000000E+00  0.00000000E+00  0.00000000E+00
  0.00000000E+00  0.00000000E+00  0.00000000E+00
  0.00000000E+00  0.00000000E+00  0.00000000E+00
  0.00000000E+00  0.00000000E+00  0.00000000E+00
  0.00000000E+00  0.00000000E+00  0.00000000E+00
  0.00000000E+00  0.00000000E+00  0.00000000E+00
  0.00000000E+00  0.00000000E+00  0.00000000E+00
  0.00000000E+00  0.00000000E+00  0.00000000E+00
  0.00000000E+00  0.00000000E+00  0.00000000E+00
  0.00000000E+00  0.00000000E+00  0.00000000E+00
  0.00000000E+00  0.00000000E+00  0.00000000E+00
  0.00000000E+00  0.00000000E+00  0.00000000E+00
  0.00000000E+00  0.00000000E+00  0.00000000E+00
  0.00000000E+00  0.00000000E+00  0.00000000E+00
  0.00000000E+00  0.00000000E+00  0.00000000E+00
  0.00000000E+00  0.00000000E+00  0.00000000E+00
  0.00000000E+00  0.00000000E+00  0.00000000E+00
  0.00000000E+00  0.00000000E+00  0.00000000E+00
  0.00000000E+00  0.00000000E+00  0.00000000E+00
  0.00000000E+00  0.00000000E+00  0.00000000E+00
  0.00000000E+00  0.00000000E+00  0.00000000E+00
  0.00000000E+00  0.00000000E+00  0.00000000E+00
  0.00000000E+00  0.00000000E+00  0.00000000E+00
  0.00000000E+00  0.00000000E+00  0.00000000E+00
  0.00000000E+00  0.00000000E+00  0.00000000E+00
  0.00000000E+00  0.00000000E+00  0.00000000E+00
  0.00000000E+00  0.00000000E+00  0.00000000E+00
  0.00000000E+00  0.00000000E+00  0.00000000E+00
  0.00000000E+00  0.00000000E+00  0.00000000E+00
  0.00000000E+00  0.00000000E+00  0.00000000E+00
  0.00000000E+00  0.00000000E+00  0.00000000E+00
  0.00000000E+00  0.00000000E+00  0.00000000E+00
  0.00000000E+00  0.00000000E+00  0.00000000E+00
  0.00000000E+00  0.00000000E+00  0.00000000E+00
  0.00000000E+00  0.00000000E+00  0.00000000E+00
  0.00000000E+00  0.00000000E+00  0.00000000E+00
  0.00000000E+00  0.00000000E+00  0.00000000E+00
  0.00000000E+00  0.00000000E+00  0.00000000E+00
  0.00000000E+00  0.00000000E+00  0.00000000E+00
  0.00000000E+00  0.00000000E+00  0.00000000E+00
  0.00000000E+00  0.00000000E+00  0.00000000E+00
  0.00000000E+00  0.00000000E+00  0.00000000E+00
  0.00000000E+00  0.00000000E+00  0.00000000E+00
  0.00000000E+00  0.00000000E+00  0.00000000E+00
  0.00000000E+00  0.00000000E+00  0.00000000E+00
  0.00000000E+00  0.00000000E+00  0.00000000E+00
  0.00000000E+00  0.00000000E+00  0.00000000E+00
  0.00000000E+00  0.00000000E+00  0.00000000E+00
  0.00000000E+00  0.00000000E+00  0.00000000E+00
  0.00000000E+00  0.00000000E+00  0.00000000E+00
  0.00000000E+00  0.00000000E+00  0.00000000E+00
  0.00000000E+00  0.00000000E+00  0.00000000E+00
  0.00000000E+00  0.00000000E+00  0.00000000E+00
  0.00000000E+00  0.00000000E+00  0.00000000E+00
  0.00000000E+00  0.00000000E+00  0.00000000E+00
  0.00000000E+00  0.00000000E+00  0.00000000E+00
  0.00000000E+00  0.00000000E+00  0.00000000E+00
  0.00000000E+00  0.00000000E+00  0.00000000E+00
  0.00000000E+00  0.00000000E+00  0.00000000E+00
  0.00000000E+00  0.00000000E+00  0.00000000E+00
  0.00000000E+00  0.00000000E+00  0.00000000E+00
  0.00000000E+00  0.00000000E+00  0.00000000E+00
  0.00000000E+00  0.00000000E+00  0.00000000E+00
  0.00000000E+00  0.00000000E+00  0.00000000E+00
  0.00000000E+00  0.00000000E+00  0.00000000E+00
  0.00000000E+00  0.00000000E+00  0.00000000E+00
  0.00000000E+00  0.00000000E+00  0.00000000E+00
  0.00000000E+00  0.00000000E+00  0.00000000E+00
  0.00000000E+00  0.00000000E+00  0.00000000E+00
  0.00000000E+00  0.00000000E+00  0.00000000E+00
  0.00000000E+00  0.00000000E+00  0.00000000E+00
  0.00000000E+00  0.00000000E+00  0.00000000E+00
  0.00000000E+00  0.00000000E+00  0.00000000E+00
  0.00000000E+00  0.00000000E+00  0.00000000E+00
  0.00000000E+00  0.00000000E+00  0.00000000E+00
  0.00000000E+00  0.00000000E+00  0.00000000E+00
  0.00000000E+00  0.00000000E+00  0.00000000E+00
  0.00000000E+00  0.00000000E+00  0.00000000E+00
  0.00000000E+00  0.00000000E+00  0.00000000E+00
  0.00000000E+00  0.00000000E+00  0.00000000E+00
  0.00000000E+00  0.00000000E+00  0.00000000E+00
  0.00000000E+00  0.00000000E+00  0.00000000E+00
  0.00000000E+00  0.00000000E+00  0.00000000E+00
  0.00000000E+00  0.00000000E+00  0.00000000E+00
  0.00000000E+00  0.00000000E+00  0.00000000E+00
  0.00000000E+00  0.00000000E+00  0.00000000E+00
  0.00000000E+00  0.00000000E+00  0.00000000E+00
  0.00000000E+00  0.00000000E+00  0.00000000E+00
  0.00000000E+00  0.00000000E+00  0.00000000E+00
  0.00000000E+00  0.00000000E+00  0.00000000E+00
  0.00000000E+00  0.00000000E+00  0.00000000E+00
  0.00000000E+00  0.00000000E+00  0.00000000E+00
  0.00000000E+00  0.00000000E+00  0.00000000E+00
  0.00000000E+00  0.00000000E+00  0.00000000E+00
  0.00000000E+00  0.00000000E+00  0.00000000E+00
  0.00000000E+00  0.00000000E+00  0.00000000E+00
  0.00000000E+00  0.00000000E+00  0.00000000E+00
  0.00000000E+00  0.00000000E+00  0.00000000E+00
  0.00000000E+00  0.00000000E+00  0.00000000E+00
  0.00000000E+00  0.00000000E+00  0.00000000E+00
  0.00000000E+00  0.00000000E+00  0.00000000E+00
  0.00000000E+00  0.00000000E+00  0.00000000E+00
  0.00000000E+00  0.00000000E+00  0.00000000E+00
  0.00000000E+00  0.00000000E+00  0.00000000E+00
  0.00000000E+00  0.00000000E+00  0.00000000E+00
  0.00000000E+00  0.00000000E+00  0.00000000E+00
  0.00000000E+00  0.00000000E+00  0.00000000E+00
  0.00000000E+00  0.00000000E+00  0.00000000E+00
  0.00000000E+00  0.00000000E+00  0.00000000E+00
  0.00000000E+00  0.00000000E+00  0.00000000E+00
  0.00000000E+00  0.00000000E+00  0.00000000E+00
  0.00000000E+00  0.00000000E+00  0.00000000E+00
  0.00000000E+00  0.00000000E+00  0.00000000E+00
  0.00000000E+00  0.00000000E+00  0.00000000E+00
  0.00000000E+00  0.00000000E+00  0.00000000E+00
  0.00000000E+00  0.00000000E+00  0.00000000E+00
  0.00000000E+00  0.00000000E+00  0.00000000E+00
  0.00000000E+00  0.00000000E+00  0.00000000E+00
  0.00000000E+00  0.00000000E+00  0.00000000E+00
  0.00000000E+00  0.00000000E+00  0.00000000E+00
  0.00000000E+00  0.00000000E+00  0.00000000E+00
  0.00000000E+00  0.00000000E+00  0.00000000E+00
  0.00000000E+00  0.00000000E+00  0.00000000E+00
  0.00000000E+00  0.00000000E+00  0.00000000E+00
  0.00000000E+00  0.00000000E+00  0.00000000E+00
  0.00000000E+00  0.00000000E+00  0.00000000E+00
  0.00000000E+00  0.00000000E+00  0.00000000E+00
  0.00000000E+00  0.00000000E+00  0.00000000E+00
  0.00000000E+00  0.00000000E+00  0.00000000E+00
  0.00000000E+00  0.00000000E+00  0.00000000E+00
  0.00000000E+00  0.00000000E+00  0.00000000E+00
  0.00000000E+00  0.00000000E+00  0.00000000E+00
  0.00000000E+00  0.00000000E+00  0.00000000E+00
  0.00000000E+00  0.00000000E+00  0.00000000E+00
  0.00000000E+00  0.00000000E+00  0.00000000E+00
  0.00000000E+00  0.00000000E+00  0.00000000E+00
  0.00000000E+00  0.00000000E+00  0.00000000E+00
  0.00000000E+00  0.00000000E+00  0.00000000E+00
  0.00000000E+00  0.00000000E+00  0.00000000E+00
  0.00000000E+00  0.00000000E+00  0.00000000E+00
  0.00000000E+00  0.00000000E+00  0.00000000E+00
  0.00000000E+00  0.00000000E+00  0.00000000E+00
  0.00000000E+00  0.00000000E+00  0.00000000E+00
  0.00000000E+00  0.00000000E+00  0.00000000E+00
  0.00000000E+00  0.00000000E+00  0.00000000E+00
  0.00000000E+00  0.00000000E+00  0.00000000E+00
  0.00000000E+00  0.00000000E+00  0.00000000E+00
  0.00000000E+00  0.00000000E+00  0.00000000E+00
  0.00000000E+00  0.00000000E+00  0.00000000E+00
  0.00000000E+00  0.00000000E+00  0.00000000E+00
  0.00000000E+00  0.00000000E+00  0.00000000E+00
  0.00000000E+00  0.00000000E+00  0.00000000E+00
  0.00000000E+00  0.00000000E+00  0.00000000E+00
  0.00000000E+00  0.00000000E+00  0.00000000E+00
  0.00000000E+00  0.00000000E+00  0.00000000E+00
  0.00000000E+00  0.00000000E+00  0.00000000E+00
  0.00000000E+00  0.00000000E+00  0.00000000E+00
  0.00000000E+00  0.00000000E+00  0.00000000E+00
  0.00000000E+00  0.00000000E+00  0.00000000E+00
  0.00000000E+00  0.00000000E+00  0.00000000E+00
  0.00000000E+00  0.00000000E+00  0.00000000E+00
  0.00000000E+00  0.00000000E+00  0.00000000E+00
  0.00000000E+00  0.00000000E+00  0.00000000E+00
  0.00000000E+00  0.00000000E+00  0.00000000E+00
  0.00000000E+00  0.00000000E+00  0.00000000E+00
  0.00000000E+00  0.00000000E+00  0.00000000E+00
  0.00000000E+00  0.00000000E+00  0.00000000E+00
  0.00000000E+00  0.00000000E+00  0.00000000E+00
  0.00000000E+00  0.00000000E+00  0.00000000E+00
  0.00000000E+00  0.00000000E+00  0.00000000E+00
  0.00000000E+00  0.00000000E+00  0.00000000E+00
  0.00000000E+00  0.00000000E+00  0.00000000E+00
  0.00000000E+00  0.00000000E+00  0.00000000E+00
  0.00000000E+00  0.00000000E+00  0.00000000E+00
  0.00000000E+00  0.00000000E+00  0.00000000E+00
  0.00000000E+00  0.00000000E+00  0.00000000E+00
  0.00000000E+00  0.00000000E+00  0.00000000E+00
  0.00000000E+00  0.00000000E+00  0.00000000E+00
  0.00000000E+00  0.00000000E+00  0.00000000E+00
  0.00000000E+00  0.00000000E+00  0.00000000E+00
  0.00000000E+00  0.00000000E+00  0.00000000E+00
  0.00000000E+00  0.00000000E+00  0.00000000E+00
  0.00000000E+00  0.00000000E+00  0.00000000E+00
  0.00000000E+00  0.00000000E+00  0.00000000E+00
  0.00000000E+00  0.00000000E+00  0.00000000E+00
  0.00000000E+00  0.00000000E+00  0.00000000E+00
  0.00000000E+00  0.00000000E+00  0.00000000E+00
  0.00000000E+00  0.00000000E+00  0.00000000E+00
  0.00000000E+00  0.00000000E+00  0.00000000E+00
  0.00000000E+00  0.00000000E+00  0.00000000E+00
  0.00000000E+00  0.00000000E+00  0.00000000E+00
  0.00000000E+00  0.00000000E+00  0.00000000E+00
  0.00000000E+00  0.00000000E+00  0.00000000E+00
  0.00000000E+00  0.00000000E+00  0.00000000E+00
  0.00000000E+00  0.00000000E+00  0.00000000E+00
  0.00000000E+00  0.00000000E+00  0.00000000E+00
  0.00000000E+00  0.00000000E+00  0.00000000E+00
  0.00000000E+00  0.00000000E+00  0.00000000E+00
  0.00000000E+00  0.00000000E+00  0.00000000E+00
  0.00000000E+00  0.00000000E+00  0.00000000E+00
  0.00000000E+00  0.00000000E+00  0.00000000E+00
  0.00000000E+00  0.00000000E+00  0.00000000E+00
  0.00000000E+00  0.00000000E+00  0.00000000E+00
  0.00000000E+00  0.00000000E+00  0.00000000E+00
  0.00000000E+00  0.00000000E+00  0.00000000E+00
  0.00000000E+00  0.00000000E+00  0.00000000E+00
  0.00000000E+00  0.00000000E+00  0.00000000E+00
  0.00000000E+00  0.00000000E+00  0.00000000E+00
  0.00000000E+00  0.00000000E+00  0.00000000E+00
