C  N  H  Cu O                           
   1.00000000000000     
    11.1029153023801186  -19.2338042452836575    0.0029768331959390
    11.1028064668630044   19.2337413553495509    0.0039341571825775
     0.0047130301019369    0.0003735853447813   14.2252669409466534
   C    N    H    Cu   O 
   194     8    16     1     2
Direct
  0.9998232521080843  0.9997996793997406  0.1190388665144629
  0.0369002544784307  0.0738941870106559  0.1181758760735929
  0.9998393918177603  0.1109220870471985  0.1179811247861613
  0.0369010154815088  0.1850049632868224  0.1167109235456558
  0.9998543070217918  0.2220388475626150  0.1160999356287975
  0.0369115294164578  0.2961244622836702  0.1143793030085095
  0.9998546483894118  0.3331415772694829  0.1135666409609760
  0.0369260935225372  0.4072264085448342  0.1121211358341027
  0.9998397384411607  0.4442358229995217  0.1121952169394762
  0.0368965573127270  0.5183164951608611  0.1121944780519614
  0.9998206097257525  0.5553340027464367  0.1132345590449276
  0.0368623331436404  0.6294110462033387  0.1144389343679586
  0.9997986031885291  0.6664291879469699  0.1158992042524146
  0.0368400952212136  0.7405054558971751  0.1172914595817396
  0.9997878642279562  0.7775412832161529  0.1184226682359583
  0.0368416340610681  0.8516298229452123  0.1191020833933924
  0.9998019042118450  0.8886697917118547  0.1194125009963303
  0.0368725604654101  0.9627726668724815  0.1191567048849119
  0.1109742689349421  0.9998633440273821  0.1179756346934078
  0.1480353146550351  0.0739341982512714  0.1159643485481089
  0.1109973381960841  0.1109641729220660  0.1164202483919832
  0.1480393139911340  0.1850345685224770  0.1147657520993352
  0.1110041663435582  0.2220584050880345  0.1153887374602390
  0.1480538110441597  0.2961457301653251  0.1141982401179693
  0.1110074476929256  0.3331823852111511  0.1134548941757064
  0.1480543699212946  0.4072398813698308  0.1117138299511541
  0.1110163638593594  0.4442567823482403  0.1110674220163160
  0.1480723787574758  0.5183243959568609  0.1105782565669363
  0.1109986775503529  0.5553258539931231  0.1116805214153232
  0.1480162333814800  0.6294040313875651  0.1129880556118856
  0.1109535425970737  0.6664330391844818  0.1144579058152142
  0.1479776675700049  0.7405127931005518  0.1159285582086091
  0.1109293845466009  0.7775487003950164  0.1171976607855118
  0.1479727484559814  0.8516393383758197  0.1179661258037047
  0.1109419119435747  0.8886986872174656  0.1186642986003671
  0.1479944686095259  0.9627876063633277  0.1179822789296914
  0.2220825563209198  0.9998665713262459  0.1165655789673118
  0.2591103810351625  0.0739414210573479  0.1143077694256929
  0.2221045578411776  0.1110009720306649  0.1136763114485713
  0.2591208803613887  0.1850273992744497  0.1122715847975003
  0.2221050793473246  0.2220841688963714  0.1130392509053001
  0.2590967778423563  0.2961175338411254  0.1135811853559487
  0.2221057123051719  0.3331724943698121  0.1138870158919810
  0.2591085257613903  0.4072318714094443  0.1138773741046379
  0.2221191460828708  0.4442639937158456  0.1121155563022152
  0.2591470308170317  0.5183176250076205  0.1119674950514978
  0.2221283755082626  0.5553339937550681  0.1108993099893954
  0.2591362234766186  0.6293735680796849  0.1122115488206844
  0.2221059679971324  0.6664096507163936  0.1132528513117862
  0.2591037892307820  0.7404888078996579  0.1151425470421892
  0.2220630677380868  0.7775417068357141  0.1161423246149418
  0.2590904442326741  0.8516273700642594  0.1170961458428785
  0.2220530290149012  0.8886867175351130  0.1175754741091820
  0.2590914615197170  0.9627845326489641  0.1170566784381535
  0.3331728701403413  0.9998285929950598  0.1164694528687891
  0.3701858607424870  0.0739167431768416  0.1150367514995172
  0.3331604464136836  0.1109777887184700  0.1135231654045304
  0.3701866502265723  0.1850374355811960  0.1122951757021502
  0.3331478440312202  0.2220561873108060  0.1120324816764691
  0.3702011480841966  0.2961214411786786  0.1135247309339926
  0.3331620032822416  0.3331441462863896  0.1147137102846765
  0.3701794483377855  0.4071982041790869  0.1170091558882214
  0.3331476681876244  0.4442445667876879  0.1161287387189588
  0.3701781114820643  0.5182905806442027  0.1165981698269907
  0.3331554043502135  0.5553063685502669  0.1143417215562466
  0.3702130469134830  0.6293595041190325  0.1147660571372760
  0.3331796073530801  0.6663770694349563  0.1139380851102077
  0.3701972479143329  0.7404385725788618  0.1155046525862006
  0.3331800666069568  0.7775187531555124  0.1159247948948785
  0.3701992121774261  0.8516037722495178  0.1168781409601079
  0.3331704139749568  0.8886671161299776  0.1171240537642102
  0.3701983723949523  0.9627614195133366  0.1169586453841607
  0.4442709942641451  0.9997997657299189  0.1166832160134149
  0.4812895729993742  0.0738867702968889  0.1157302619502766
  0.4442664779212349  0.1109549788766526  0.1147825451085721
  0.4812815121255297  0.1850460131254036  0.1134238698403851
  0.4442489457505587  0.2220867058141416  0.1126234949357195
  0.4813098485937969  0.2961455937603961  0.1128962494873587
  0.4442632464737123  0.3331507446242314  0.1143126980178261
  0.4812871559972196  0.4071643690849472  0.1168817512525264
  0.4442379195651657  0.4441887276457404  0.1186485099800322
  0.4812719924554242  0.5182667775584450  0.1194766266339275
  0.4442368308695563  0.5552951764581784  0.1183031909391890
  0.4812975953820335  0.6293472477643185  0.1170195764865232
  0.4442433466847709  0.6663527992702916  0.1159925563555116
  0.4813077002613251  0.7404171234212520  0.1156612390375563
  0.4442816814871903  0.7774714537847665  0.1161478103732990
  0.4813014013083876  0.8515684985090253  0.1166230744795327
  0.4442799025762113  0.8886406645856908  0.1170242854156293
  0.4812986893083372  0.9627300091019023  0.1169560698662937
  0.5553714858182688  0.9997668944567167  0.1167036349538465
  0.5923957665190961  0.0738615530766144  0.1160785091914840
  0.5553680077515080  0.1109253073643898  0.1153317116880918
  0.5923814835067766  0.1850082287711797  0.1138819150117251
  0.5553637600185301  0.2220868143565677  0.1128796298402865
  0.5923847589404789  0.2961513960026264  0.1116170626988500
  0.5553306794102001  0.3331534458459658  0.1124603018350232
  0.5923883194723240  0.4072015106792567  0.1137850026282975
  0.5553638094645349  0.4441958313821165  0.1164931349188979
  0.5923876666119728  0.5182317846088863  0.1178084161659471
  0.5553537164957468  0.5552798762142551  0.1188891813520757
  0.5923790214294056  0.6293341418355041  0.1169332960380421
  0.5553427973789820  0.6663567796161396  0.1159151242258057
  0.5924000680491195  0.7404080195737394  0.1136525658839101
  0.5553796461729248  0.7774396828899958  0.1144351853751435
  0.5923968904908329  0.8515146933430082  0.1146248896249355
  0.5553794099000416  0.8885966403607307  0.1161247471861404
  0.5923932595824942  0.9626935730894383  0.1164777984368447
  0.6664725936868821  0.9997380350869963  0.1162938921841536
  0.7035068499062916  0.0738386704443141  0.1163952104275905
  0.6664717070086215  0.1109003353307848  0.1158658178047894
  0.7034963221405671  0.1849885704059962  0.1147593298750468
  0.6664601255226925  0.2220467411115806  0.1134844520271273
  0.7034575555607750  0.2961309523098371  0.1119751999063234
  0.6664338991257051  0.3331688607167079  0.1109611378086067
  0.7034590639542228  0.4072170877074924  0.1112715017968412
  0.6664312775744768  0.4442164420684472  0.1130665568967146
  0.7034509015911384  0.5182519676724130  0.1148368677727212
  0.6664347350810486  0.5552681850960783  0.1166663985727885
  0.7034318444690061  0.6293285607055011  0.1166090875408123
  0.6664290006914001  0.6663683137422093  0.1155361929137601
  0.7034302179141181  0.7404013273569628  0.1136231930767634
  0.6664184891809508  0.7774289634691516  0.1124113331345358
  0.7034518710794031  0.8514888530170536  0.1127470117044796
  0.6664588932744386  0.8885575072106752  0.1139031562294704
  0.7034821097326820  0.9626547861413093  0.1155421257583990
  0.7775651227000363  0.9997376123110731  0.1164065077695591
  0.8146152436540280  0.0738318430551142  0.1170382738726329
  0.7775853841416925  0.1108882448806151  0.1164940922224471
  0.8146278477774563  0.1849823823977010  0.1157423772989095
  0.7775808400207507  0.2220203416402383  0.1146690013286573
  0.8146051800792038  0.2961055863539431  0.1135291070733385
  0.7775445601695506  0.3331419246631974  0.1123929806002218
  0.8145686135115562  0.4072208895144276  0.1120135173132475
  0.7775016536200133  0.4442266673512245  0.1117331085009909
  0.8145489331655404  0.5182749521610555  0.1133458438299429
  0.7775065914453583  0.5552792563265715  0.1147954754008296
  0.8145449669240044  0.6293380848803518  0.1164942176230110
  0.7774929545076671  0.6663674559984627  0.1168308623565126
  0.8145375795873324  0.7404568469047994  0.1168848512997090
  0.7774901125667127  0.7774638860404914  0.1150269047346184
  0.8145463932594051  0.8515403515967226  0.1156847850929557
  0.7775129550725064  0.8885747871798736  0.1145363183398570
  0.8145755266904507  0.9626553512327800  0.1164075938601451
  0.8886709770834361  0.9997491331438748  0.1179878293735537
  0.9257388071984904  0.0738520658502557  0.1181492528305483
  0.8887084528167779  0.1108970387194017  0.1174542758108311
  0.9257633519254369  0.1849867883214830  0.1166029080757157
  0.8887143111188345  0.2220244028744514  0.1156040025226500
  0.9257582377396587  0.2961022269837575  0.1142502873435862
  0.8886969193946972  0.3331269022832672  0.1134085444077769
  0.9257417668917229  0.4072076136365108  0.1126569682956502
  0.8886666311417792  0.4442263034514649  0.1125433876484010
  0.9257248574834707  0.5183058161135460  0.1131919943363274
  0.8886352462749192  0.5553072147608663  0.1140827848111183
  0.9257005600580209  0.6293845505574944  0.1157460257266512
  0.8886397908241217  0.6663984223048500  0.1169301309382818
  0.9256937954420024  0.7404846357309876  0.1181535266722502
  0.8886360328443844  0.7775120697601051  0.1181969198378747
  0.9257024407384320  0.8516003663768070  0.1188107424341874
  0.8886356229437251  0.8886203208581743  0.1179817129069954
  0.9257133382449680  0.9627173038994917  0.1186310588367646
  0.2636254202785802  0.1268531781161318  0.3395025166519124
  0.3329502738211010  0.1805313764819584  0.3384260121196582
  0.3464520817232186  0.2491484647464356  0.3426738292354991
  0.2903681403439233  0.2636197185098366  0.3419806123961829
  0.2213110513951198  0.2094605541037686  0.3373100847073441
  0.2085046260953369  0.1410969826996767  0.3391600788470488
  0.3186158366069535  0.3377345252745727  0.3552631392758638
  0.4112979947402089  0.3138704629520321  0.3564781620422238
  0.3186107158023806  0.4444718874851572  0.3518161284516258
  0.3971443150747040  0.5594404735942081  0.3619802582907094
  0.2791016231534015  0.4806340498972919  0.3484563377512563
  0.3282620354652003  0.5527575831846091  0.3553730758172597
  0.3067316139584206  0.6021209480046520  0.3534585088682410
  0.2355349333987720  0.5783033811771126  0.3452023500144787
  0.1867277706049054  0.5066823219708524  0.3387814817089901
  0.2079419265625209  0.4570846079474950  0.3402894085407137
  0.5334393592390989  0.3894388283536237  0.3535086339432664
  0.6091116738434929  0.5052237489806407  0.3625398564098250
  0.6267941988268275  0.3507104019409271  0.3425143818729858
  0.6986388403975937  0.3769806883178727  0.3407195449652898
  0.7457788171785926  0.4490313753622535  0.3466364484889124
  0.7222327274679335  0.4966447103208887  0.3545019545184482
  0.6504507522505044  0.4707040230174799  0.3565068972417562
  0.6029525862591725  0.3981017610088954  0.3502775823778380
  0.6113575915655298  0.6140848243379133  0.3726623365970269
  0.5199570784883177  0.6376146599674651  0.3730500211567530
  0.6403983062602543  0.6883174003660746  0.3523571918118960
  0.7087960763838087  0.7416453368825519  0.3398714898058303
  0.7215122157733598  0.8099931258978913  0.3322150573629261
  0.6666131383452585  0.8242036228022481  0.3324831853464630
  0.5973010565996160  0.7705228822264831  0.3406103797129943
  0.5843925949904847  0.7027963814135875  0.3527182285382722
  0.3901912603695961  0.3636073880389529  0.3839381565062552
  0.2878370994498598  0.3744714219405952  0.3471824921696738
  0.3886977534808703  0.4929427685617061  0.3583742203714548
  0.4751777952187685  0.3264351342084630  0.3492161336621760
  0.5391145405707114  0.4543048509784984  0.3592981074776696
  0.6402513107325056  0.5752077247813281  0.3638997798304302
  0.5431103993496776  0.5921902714482240  0.4012728117386017
  0.4550059359054710  0.6226451254781897  0.3641530179002634
  0.2518987370614872  0.0729895581773658  0.3417533976878301
  0.3757209052504815  0.1698035701051900  0.3389065169720878
  0.1790384211937616  0.2209291653109791  0.3368106440729435
  0.1550814508557332  0.0980547629043273  0.3410942674486306
  0.3447164211134853  0.6573983151689570  0.3580136555399240
  0.2173236776397119  0.6156769108508293  0.3428759244714440
  0.1317136006856889  0.4899730810037415  0.3312581808271934
  0.1706575291674156  0.4017379498945531  0.3340734165749348
  0.5901401123901356  0.2951734582570626  0.3367280493136324
  0.7187168563230829  0.3413557004848081  0.3332088454897799
  0.8014751959760236  0.4677956653153562  0.3442977668544532
  0.7583237779080394  0.5524141999314041  0.3586527425570276
  0.7511342418637800  0.7302434922635936  0.3386688494664684
  0.7747828147796982  0.8526788789071493  0.3250346119949744
  0.6780229012808535  0.8777682632527951  0.3257333665151467
  0.5545146357296669  0.7812526913610706  0.3402065274646981
  0.4576259103358795  0.4642645481068409  0.3766378594278565
  0.5081882826036976  0.5400550367194508  0.4592283302009020
  0.4047170217172881  0.3859734949243429  0.4757342123822581
 
  0.00000000E+00  0.00000000E+00  0.00000000E+00
  0.00000000E+00  0.00000000E+00  0.00000000E+00
  0.00000000E+00  0.00000000E+00  0.00000000E+00
  0.00000000E+00  0.00000000E+00  0.00000000E+00
  0.00000000E+00  0.00000000E+00  0.00000000E+00
  0.00000000E+00  0.00000000E+00  0.00000000E+00
  0.00000000E+00  0.00000000E+00  0.00000000E+00
  0.00000000E+00  0.00000000E+00  0.00000000E+00
  0.00000000E+00  0.00000000E+00  0.00000000E+00
  0.00000000E+00  0.00000000E+00  0.00000000E+00
  0.00000000E+00  0.00000000E+00  0.00000000E+00
  0.00000000E+00  0.00000000E+00  0.00000000E+00
  0.00000000E+00  0.00000000E+00  0.00000000E+00
  0.00000000E+00  0.00000000E+00  0.00000000E+00
  0.00000000E+00  0.00000000E+00  0.00000000E+00
  0.00000000E+00  0.00000000E+00  0.00000000E+00
  0.00000000E+00  0.00000000E+00  0.00000000E+00
  0.00000000E+00  0.00000000E+00  0.00000000E+00
  0.00000000E+00  0.00000000E+00  0.00000000E+00
  0.00000000E+00  0.00000000E+00  0.00000000E+00
  0.00000000E+00  0.00000000E+00  0.00000000E+00
  0.00000000E+00  0.00000000E+00  0.00000000E+00
  0.00000000E+00  0.00000000E+00  0.00000000E+00
  0.00000000E+00  0.00000000E+00  0.00000000E+00
  0.00000000E+00  0.00000000E+00  0.00000000E+00
  0.00000000E+00  0.00000000E+00  0.00000000E+00
  0.00000000E+00  0.00000000E+00  0.00000000E+00
  0.00000000E+00  0.00000000E+00  0.00000000E+00
  0.00000000E+00  0.00000000E+00  0.00000000E+00
  0.00000000E+00  0.00000000E+00  0.00000000E+00
  0.00000000E+00  0.00000000E+00  0.00000000E+00
  0.00000000E+00  0.00000000E+00  0.00000000E+00
  0.00000000E+00  0.00000000E+00  0.00000000E+00
  0.00000000E+00  0.00000000E+00  0.00000000E+00
  0.00000000E+00  0.00000000E+00  0.00000000E+00
  0.00000000E+00  0.00000000E+00  0.00000000E+00
  0.00000000E+00  0.00000000E+00  0.00000000E+00
  0.00000000E+00  0.00000000E+00  0.00000000E+00
  0.00000000E+00  0.00000000E+00  0.00000000E+00
  0.00000000E+00  0.00000000E+00  0.00000000E+00
  0.00000000E+00  0.00000000E+00  0.00000000E+00
  0.00000000E+00  0.00000000E+00  0.00000000E+00
  0.00000000E+00  0.00000000E+00  0.00000000E+00
  0.00000000E+00  0.00000000E+00  0.00000000E+00
  0.00000000E+00  0.00000000E+00  0.00000000E+00
  0.00000000E+00  0.00000000E+00  0.00000000E+00
  0.00000000E+00  0.00000000E+00  0.00000000E+00
  0.00000000E+00  0.00000000E+00  0.00000000E+00
  0.00000000E+00  0.00000000E+00  0.00000000E+00
  0.00000000E+00  0.00000000E+00  0.00000000E+00
  0.00000000E+00  0.00000000E+00  0.00000000E+00
  0.00000000E+00  0.00000000E+00  0.00000000E+00
  0.00000000E+00  0.00000000E+00  0.00000000E+00
  0.00000000E+00  0.00000000E+00  0.00000000E+00
  0.00000000E+00  0.00000000E+00  0.00000000E+00
  0.00000000E+00  0.00000000E+00  0.00000000E+00
  0.00000000E+00  0.00000000E+00  0.00000000E+00
  0.00000000E+00  0.00000000E+00  0.00000000E+00
  0.00000000E+00  0.00000000E+00  0.00000000E+00
  0.00000000E+00  0.00000000E+00  0.00000000E+00
  0.00000000E+00  0.00000000E+00  0.00000000E+00
  0.00000000E+00  0.00000000E+00  0.00000000E+00
  0.00000000E+00  0.00000000E+00  0.00000000E+00
  0.00000000E+00  0.00000000E+00  0.00000000E+00
  0.00000000E+00  0.00000000E+00  0.00000000E+00
  0.00000000E+00  0.00000000E+00  0.00000000E+00
  0.00000000E+00  0.00000000E+00  0.00000000E+00
  0.00000000E+00  0.00000000E+00  0.00000000E+00
  0.00000000E+00  0.00000000E+00  0.00000000E+00
  0.00000000E+00  0.00000000E+00  0.00000000E+00
  0.00000000E+00  0.00000000E+00  0.00000000E+00
  0.00000000E+00  0.00000000E+00  0.00000000E+00
  0.00000000E+00  0.00000000E+00  0.00000000E+00
  0.00000000E+00  0.00000000E+00  0.00000000E+00
  0.00000000E+00  0.00000000E+00  0.00000000E+00
  0.00000000E+00  0.00000000E+00  0.00000000E+00
  0.00000000E+00  0.00000000E+00  0.00000000E+00
  0.00000000E+00  0.00000000E+00  0.00000000E+00
  0.00000000E+00  0.00000000E+00  0.00000000E+00
  0.00000000E+00  0.00000000E+00  0.00000000E+00
  0.00000000E+00  0.00000000E+00  0.00000000E+00
  0.00000000E+00  0.00000000E+00  0.00000000E+00
  0.00000000E+00  0.00000000E+00  0.00000000E+00
  0.00000000E+00  0.00000000E+00  0.00000000E+00
  0.00000000E+00  0.00000000E+00  0.00000000E+00
  0.00000000E+00  0.00000000E+00  0.00000000E+00
  0.00000000E+00  0.00000000E+00  0.00000000E+00
  0.00000000E+00  0.00000000E+00  0.00000000E+00
  0.00000000E+00  0.00000000E+00  0.00000000E+00
  0.00000000E+00  0.00000000E+00  0.00000000E+00
  0.00000000E+00  0.00000000E+00  0.00000000E+00
  0.00000000E+00  0.00000000E+00  0.00000000E+00
  0.00000000E+00  0.00000000E+00  0.00000000E+00
  0.00000000E+00  0.00000000E+00  0.00000000E+00
  0.00000000E+00  0.00000000E+00  0.00000000E+00
  0.00000000E+00  0.00000000E+00  0.00000000E+00
  0.00000000E+00  0.00000000E+00  0.00000000E+00
  0.00000000E+00  0.00000000E+00  0.00000000E+00
  0.00000000E+00  0.00000000E+00  0.00000000E+00
  0.00000000E+00  0.00000000E+00  0.00000000E+00
  0.00000000E+00  0.00000000E+00  0.00000000E+00
  0.00000000E+00  0.00000000E+00  0.00000000E+00
  0.00000000E+00  0.00000000E+00  0.00000000E+00
  0.00000000E+00  0.00000000E+00  0.00000000E+00
  0.00000000E+00  0.00000000E+00  0.00000000E+00
  0.00000000E+00  0.00000000E+00  0.00000000E+00
  0.00000000E+00  0.00000000E+00  0.00000000E+00
  0.00000000E+00  0.00000000E+00  0.00000000E+00
  0.00000000E+00  0.00000000E+00  0.00000000E+00
  0.00000000E+00  0.00000000E+00  0.00000000E+00
  0.00000000E+00  0.00000000E+00  0.00000000E+00
  0.00000000E+00  0.00000000E+00  0.00000000E+00
  0.00000000E+00  0.00000000E+00  0.00000000E+00
  0.00000000E+00  0.00000000E+00  0.00000000E+00
  0.00000000E+00  0.00000000E+00  0.00000000E+00
  0.00000000E+00  0.00000000E+00  0.00000000E+00
  0.00000000E+00  0.00000000E+00  0.00000000E+00
  0.00000000E+00  0.00000000E+00  0.00000000E+00
  0.00000000E+00  0.00000000E+00  0.00000000E+00
  0.00000000E+00  0.00000000E+00  0.00000000E+00
  0.00000000E+00  0.00000000E+00  0.00000000E+00
  0.00000000E+00  0.00000000E+00  0.00000000E+00
  0.00000000E+00  0.00000000E+00  0.00000000E+00
  0.00000000E+00  0.00000000E+00  0.00000000E+00
  0.00000000E+00  0.00000000E+00  0.00000000E+00
  0.00000000E+00  0.00000000E+00  0.00000000E+00
  0.00000000E+00  0.00000000E+00  0.00000000E+00
  0.00000000E+00  0.00000000E+00  0.00000000E+00
  0.00000000E+00  0.00000000E+00  0.00000000E+00
  0.00000000E+00  0.00000000E+00  0.00000000E+00
  0.00000000E+00  0.00000000E+00  0.00000000E+00
  0.00000000E+00  0.00000000E+00  0.00000000E+00
  0.00000000E+00  0.00000000E+00  0.00000000E+00
  0.00000000E+00  0.00000000E+00  0.00000000E+00
  0.00000000E+00  0.00000000E+00  0.00000000E+00
  0.00000000E+00  0.00000000E+00  0.00000000E+00
  0.00000000E+00  0.00000000E+00  0.00000000E+00
  0.00000000E+00  0.00000000E+00  0.00000000E+00
  0.00000000E+00  0.00000000E+00  0.00000000E+00
  0.00000000E+00  0.00000000E+00  0.00000000E+00
  0.00000000E+00  0.00000000E+00  0.00000000E+00
  0.00000000E+00  0.00000000E+00  0.00000000E+00
  0.00000000E+00  0.00000000E+00  0.00000000E+00
  0.00000000E+00  0.00000000E+00  0.00000000E+00
  0.00000000E+00  0.00000000E+00  0.00000000E+00
  0.00000000E+00  0.00000000E+00  0.00000000E+00
  0.00000000E+00  0.00000000E+00  0.00000000E+00
  0.00000000E+00  0.00000000E+00  0.00000000E+00
  0.00000000E+00  0.00000000E+00  0.00000000E+00
  0.00000000E+00  0.00000000E+00  0.00000000E+00
  0.00000000E+00  0.00000000E+00  0.00000000E+00
  0.00000000E+00  0.00000000E+00  0.00000000E+00
  0.00000000E+00  0.00000000E+00  0.00000000E+00
  0.00000000E+00  0.00000000E+00  0.00000000E+00
  0.00000000E+00  0.00000000E+00  0.00000000E+00
  0.00000000E+00  0.00000000E+00  0.00000000E+00
  0.00000000E+00  0.00000000E+00  0.00000000E+00
  0.00000000E+00  0.00000000E+00  0.00000000E+00
  0.00000000E+00  0.00000000E+00  0.00000000E+00
  0.00000000E+00  0.00000000E+00  0.00000000E+00
  0.00000000E+00  0.00000000E+00  0.00000000E+00
  0.00000000E+00  0.00000000E+00  0.00000000E+00
  0.00000000E+00  0.00000000E+00  0.00000000E+00
  0.00000000E+00  0.00000000E+00  0.00000000E+00
  0.00000000E+00  0.00000000E+00  0.00000000E+00
  0.00000000E+00  0.00000000E+00  0.00000000E+00
  0.00000000E+00  0.00000000E+00  0.00000000E+00
  0.00000000E+00  0.00000000E+00  0.00000000E+00
  0.00000000E+00  0.00000000E+00  0.00000000E+00
  0.00000000E+00  0.00000000E+00  0.00000000E+00
  0.00000000E+00  0.00000000E+00  0.00000000E+00
  0.00000000E+00  0.00000000E+00  0.00000000E+00
  0.00000000E+00  0.00000000E+00  0.00000000E+00
  0.00000000E+00  0.00000000E+00  0.00000000E+00
  0.00000000E+00  0.00000000E+00  0.00000000E+00
  0.00000000E+00  0.00000000E+00  0.00000000E+00
  0.00000000E+00  0.00000000E+00  0.00000000E+00
  0.00000000E+00  0.00000000E+00  0.00000000E+00
  0.00000000E+00  0.00000000E+00  0.00000000E+00
  0.00000000E+00  0.00000000E+00  0.00000000E+00
  0.00000000E+00  0.00000000E+00  0.00000000E+00
  0.00000000E+00  0.00000000E+00  0.00000000E+00
  0.00000000E+00  0.00000000E+00  0.00000000E+00
  0.00000000E+00  0.00000000E+00  0.00000000E+00
  0.00000000E+00  0.00000000E+00  0.00000000E+00
  0.00000000E+00  0.00000000E+00  0.00000000E+00
  0.00000000E+00  0.00000000E+00  0.00000000E+00
  0.00000000E+00  0.00000000E+00  0.00000000E+00
  0.00000000E+00  0.00000000E+00  0.00000000E+00
  0.00000000E+00  0.00000000E+00  0.00000000E+00
  0.00000000E+00  0.00000000E+00  0.00000000E+00
  0.00000000E+00  0.00000000E+00  0.00000000E+00
  0.00000000E+00  0.00000000E+00  0.00000000E+00
  0.00000000E+00  0.00000000E+00  0.00000000E+00
  0.00000000E+00  0.00000000E+00  0.00000000E+00
  0.00000000E+00  0.00000000E+00  0.00000000E+00
  0.00000000E+00  0.00000000E+00  0.00000000E+00
  0.00000000E+00  0.00000000E+00  0.00000000E+00
  0.00000000E+00  0.00000000E+00  0.00000000E+00
  0.00000000E+00  0.00000000E+00  0.00000000E+00
  0.00000000E+00  0.00000000E+00  0.00000000E+00
  0.00000000E+00  0.00000000E+00  0.00000000E+00
  0.00000000E+00  0.00000000E+00  0.00000000E+00
  0.00000000E+00  0.00000000E+00  0.00000000E+00
  0.00000000E+00  0.00000000E+00  0.00000000E+00
  0.00000000E+00  0.00000000E+00  0.00000000E+00
  0.00000000E+00  0.00000000E+00  0.00000000E+00
  0.00000000E+00  0.00000000E+00  0.00000000E+00
  0.00000000E+00  0.00000000E+00  0.00000000E+00
  0.00000000E+00  0.00000000E+00  0.00000000E+00
  0.00000000E+00  0.00000000E+00  0.00000000E+00
  0.00000000E+00  0.00000000E+00  0.00000000E+00
  0.00000000E+00  0.00000000E+00  0.00000000E+00
  0.00000000E+00  0.00000000E+00  0.00000000E+00
  0.00000000E+00  0.00000000E+00  0.00000000E+00
  0.00000000E+00  0.00000000E+00  0.00000000E+00
  0.00000000E+00  0.00000000E+00  0.00000000E+00
  0.00000000E+00  0.00000000E+00  0.00000000E+00
  0.00000000E+00  0.00000000E+00  0.00000000E+00
  0.00000000E+00  0.00000000E+00  0.00000000E+00
  0.00000000E+00  0.00000000E+00  0.00000000E+00
