C  N  Cu O  H                           
   1.00000000000000     
     8.4847244584024217    0.0002776486207846   -0.0000016232455225
     0.0002813194583910    8.3781597643537413    0.0000013661483145
    -0.0000100165644405    0.0000055948446242   17.8922230678837231
   C    N    Cu   O    H 
    20     4     1     3     1
Direct
  0.4960180940757045  0.0912744145600605  0.1526259690551197
  0.3488643049874695  0.1730578455211746  0.1522784385081109
  0.6443330375475271  0.1681659030464351  0.1472758314153804
  0.7887869134676678  0.9199967304475464  0.1510600515825535
  0.7923566848109193  0.0847819461140331  0.1486070194271384
  0.9146417212524419  0.2060232492667644  0.1489847070789316
  0.8316487152704818  0.3548319573223991  0.1485297040651073
  0.1998972375806455  0.0897178243476872  0.1485519850390741
  0.0792739060336234  0.2095565851500375  0.1508343026706341
  0.1630741279306981  0.3592036862013717  0.1583374462220871
  0.0786882759872956  0.5051817638337316  0.1635917753111394
  0.1501110472358066  0.6558342531991924  0.1691150414803097
  0.3438334550597301  0.8467833548600864  0.1663574397860884
  0.1973064471009724  0.9247334329962166  0.1528459069418563
  0.0736579104875807  0.8034295376263630  0.1547414184041158
  0.6401714002677300  0.8350957426589602  0.1572657666840558
  0.8271823349745371  0.6505390161113292  0.1549413391690287
  0.9096471556307225  0.8006820129873446  0.1509909494695794
  0.4937813431400667  0.9186763856109583  0.1606406675265772
  0.9084815888743254  0.5029914717797216  0.1555111595554914
  0.6713240322235262  0.3294057726843415  0.1430548418316305
  0.3249010415242737  0.3348726710116289  0.1577386709080958
  0.3070748585476047  0.6901798065809269  0.1865913008540560
  0.6665162408667531  0.6729756258703727  0.1579029957720287
  0.5250408277376130  0.4716241660905862  0.1851580804251292
  0.3880296817840491  0.6091439831794958  0.2362151687109524
  0.6321277310190695  0.4254152483247015  0.2842105239209541
  0.5484339836861085  0.3094023919896579  0.3258082533372973
  0.4693571387587743  0.3742075856767606  0.3521752976526729
 
  0.00000000E+00  0.00000000E+00  0.00000000E+00
  0.00000000E+00  0.00000000E+00  0.00000000E+00
  0.00000000E+00  0.00000000E+00  0.00000000E+00
  0.00000000E+00  0.00000000E+00  0.00000000E+00
  0.00000000E+00  0.00000000E+00  0.00000000E+00
  0.00000000E+00  0.00000000E+00  0.00000000E+00
  0.00000000E+00  0.00000000E+00  0.00000000E+00
  0.00000000E+00  0.00000000E+00  0.00000000E+00
  0.00000000E+00  0.00000000E+00  0.00000000E+00
  0.00000000E+00  0.00000000E+00  0.00000000E+00
  0.00000000E+00  0.00000000E+00  0.00000000E+00
  0.00000000E+00  0.00000000E+00  0.00000000E+00
  0.00000000E+00  0.00000000E+00  0.00000000E+00
  0.00000000E+00  0.00000000E+00  0.00000000E+00
  0.00000000E+00  0.00000000E+00  0.00000000E+00
  0.00000000E+00  0.00000000E+00  0.00000000E+00
  0.00000000E+00  0.00000000E+00  0.00000000E+00
  0.00000000E+00  0.00000000E+00  0.00000000E+00
  0.00000000E+00  0.00000000E+00  0.00000000E+00
  0.00000000E+00  0.00000000E+00  0.00000000E+00
  0.00000000E+00  0.00000000E+00  0.00000000E+00
  0.00000000E+00  0.00000000E+00  0.00000000E+00
  0.00000000E+00  0.00000000E+00  0.00000000E+00
  0.00000000E+00  0.00000000E+00  0.00000000E+00
  0.00000000E+00  0.00000000E+00  0.00000000E+00
  0.00000000E+00  0.00000000E+00  0.00000000E+00
  0.00000000E+00  0.00000000E+00  0.00000000E+00
  0.00000000E+00  0.00000000E+00  0.00000000E+00
  0.00000000E+00  0.00000000E+00  0.00000000E+00
